
units real
boundary p p p
atom_style full
pair_style  lj/cut 13.0

bond_style      harmonic
angle_style     harmonic
dihedral_style opls



read_data in.data
Reading data file ...
  orthogonal box = (-0.037475 0.202136 14.043014) to (27.017125 59.842036 151.28211)
  1 by 1 by 1 MPI processor grid
  reading atoms ...
  4992 atoms
  reading velocities ...
  4992 velocities
  scanning bonds ...
  3 = max bonds/atom
  scanning angles ...
  3 = max angles/atom
  scanning dihedrals ...
  12 = max dihedrals/atom
  reading bonds ...
  5060 bonds
  reading angles ...
  6208 angles
  reading dihedrals ...
  8880 dihedrals
Finding 1-2 1-3 1-4 neighbors ...
  special bond factors lj:    0.0      0.0      0.0     
  special bond factors coul:  0.0      0.0      0.0     
     3 = max # of 1-2 neighbors
     6 = max # of 1-3 neighbors
    18 = max # of 1-4 neighbors
    18 = max # of special neighbors
  special bonds CPU = 0.008 seconds
  read_data CPU = 0.075 seconds
include ../Trial_01/oil_graphene.ff
#Pair Coeffs # lj/cut/omp

pair_coeff 1 1 0.0 0.0 #C-C
pair_coeff 1 2 0.111 3.728 #C-CH3
pair_coeff 1 3 0.091 3.728 #C-CH2
pair_coeff 2 2 0.175 3.905 #CH3-CH3
pair_coeff 2 3 0.144 3.905 #CH3-CH2
pair_coeff 3 3 0.118 3.905 #CH2-CH2


#Bond Coeffs # harmonic/omp

bond_coeff 1 0.0 1.400
bond_coeff 2 260.0 1.526

#Angle Coeffs # harmonic/omp

angle_coeff 1 0.0 120.0
angle_coeff 2 63.0 112.0
angle_coeff 3 63.0 112.0

#Dihedral Coeffs # opls/omp

dihedral_coeff 1 0.0 0.0 0.0 0.0
dihedral_coeff 2 1.411 -0.271 3.145 0
dihedral_coeff 3 1.411 -0.271 3.145 0

variable  dt equal 1
variable Temp equal 340.0
variable Press equal 200.0
group oil type 2:3
3760 atoms in group oil
group graphene type 1
1232 atoms in group graphene
group  upper_graphene id 617:1232
616 atoms in group upper_graphene
group lower_graphene id 1:616
616 atoms in group lower_graphene
group dilate_group union oil upper_graphene
4376 atoms in group dilate_group
velocity oil create ${Temp} 53244 dist gaussian mom yes rot yes
velocity oil create 340 53244 dist gaussian mom yes rot yes
# delete_atoms group graphene bond yes mol yes
# write_data afterdel.data

neighbor 2 bin
neigh_modify  delay 0 every 10 check yes



timestep ${dt}
timestep 1

fix setfhi upper_graphene setforce 0.0 0.0 NULL
variable Sz equal lx*ly
# variable fz equal (${Press}*${Sz}*4.0196E-13/count(upper_graphene))
fix avefhi upper_graphene aveforce NULL  NULL -0.00382
fix setflo lower_graphene setforce 0.0 0.0 0.0

variable shi equal -f_setfhi[1]/${Sz}
variable shi equal -f_setfhi[1]/1613.53363854
variable phi equal f_avefhi[3]/${Sz}
variable phi equal f_avefhi[3]/1613.53363854
variable slo equal f_setflo[1]/${Sz}
variable slo equal f_setflo[1]/1613.53363854
variable plo equal -f_setflo[3]/${Sz}
variable plo equal -f_setflo[3]/1613.53363854

compute oil_temp oil temp
variable oilTemp equal c_oil_temp

compute      oil_press all pressure oil_temp
variable oilPress equal c_oil_press



thermo          1000
thermo_style    custom step temp c_oil_temp press  c_oil_press pe etotal   lx ly v_shi v_phi v_slo v_plo
# thermo_modify   norm no

fix     npt_1 all nvt temp ${Temp} ${Temp} $(dt*100)
fix     npt_1 all nvt temp 340 ${Temp} $(dt*100)
fix     npt_1 all nvt temp 340 340 $(dt*100)
fix     npt_1 all nvt temp 340 340 100
# fix_modify   npt_1 temp oil_temp  press oil_press


dump 2 all custom 2000 ${dump_file_name} id mol type x y z
dump 2 all custom 2000 npt_octane_ua_graphene.lammpstrj id mol type x y z
# dump_modify 2 sort id


fix txt_file_npt all print 1000 "$(step)  $(temp) ${oilTemp} $(press) ${oilPress} $(vol) $(pe) $(density)"  file ${file_name} screen no         title "#step temp oiltemp press oilpress vol pe density"
fix txt_file_npt all print 1000 "$(step)  $(temp) ${oilTemp} $(press) ${oilPress} $(vol) $(pe) $(density)"  file npt_octane_ua_graphene.dat screen no         title "#step temp oiltemp press oilpress vol pe density"

run 3000000
Last active /omp style is dihedral_style opls/omp
Neighbor list info ...
  update every 10 steps, delay 0 steps, check yes
  max neighbors/atom: 2000, page size: 100000
  master list distance cutoff = 15
  ghost atom cutoff = 15
  binsize = 7.5, bins = 4 8 19
  1 neighbor lists, perpetual/occasional/extra = 1 0 0
  (1) pair lj/cut/omp, perpetual
      attributes: half, newton on, omp
      pair build: half/bin/newton/omp
      stencil: half/bin/3d/newton
      bin: standard
Per MPI rank memory allocation (min/avg/max) = 46.68 | 46.68 | 46.68 Mbytes
Step Temp c_oil_temp Press c_oil_press PotEng TotEng Lx Ly v_shi v_phi v_slo v_plo 
       0    256.07293          340   -479.14738   -479.14738     872.5157    4682.1698      27.0546      59.6399 -0.00049150923 -0.0087456894 -0.00032859538 -0.005439305 
    1000    342.38738    454.59236    48.680491    48.654196     902.1274    5995.9008      27.0546      59.6399  0.000192126 -0.014159209 0.00024000561 0.00057386974 
    2000    334.26887    443.79416   -219.47106   -219.54103    893.67757    5866.6701      27.0546      59.6399 0.00013353177 -0.021380583 -0.00043515544  0.012886089 
    3000     340.1493    451.50672    -198.3812   -198.67124     873.4161     5933.893      27.0546      59.6399 0.00047403597 -0.011314319 0.00043201974  0.012725669 
    4000    332.59102    441.31889   -33.448946   -34.091396     939.6614    5887.6921      27.0546      59.6399 0.00050266297  0.022568601 -1.5060728e-06 0.0035109426 
    5000    342.40952    454.29004    36.356005    35.562441     796.5334    5890.6362      27.0546      59.6399 -0.0004897655 -0.0037313765 -0.00050715369  0.016791403 
    6000    339.41109    450.22366   -167.17902    -168.1697    916.53125    5966.0257      27.0546      59.6399 0.00022668843 -0.0070233929 -0.00015207365 0.0066824846 
    7000    338.75723     449.5388    -277.8115   -278.37822    897.24462    5937.0115      27.0546      59.6399 0.00022300407 -0.0086805686 -5.5749152e-05 -0.0094483115 
    8000    339.91424     450.6507   -249.41961    -250.9678     738.6212    5795.6012      27.0546      59.6399 0.00077666807 0.0025998494 0.00043924179 0.0063701496 
    9000    335.98497    445.91328   -89.211208   -89.649905    782.71294    5781.2362      27.0546      59.6399 7.6262774e-05  0.015603593 0.00045301478 -0.011782731 
   10000     344.6438    457.20328   -270.89778    -271.8147    640.00119    5767.3439      27.0546      59.6399 -9.0671054e-05 -0.013794687 2.4373793e-05 -0.027044284 
   11000     339.8426    450.96606    -78.40853   -79.007234    798.38389     5854.298      27.0546      59.6399 -0.0006487087 0.0080362273 -0.00024173103 0.0093130483 
   12000    335.06026    444.50375   -5.2395959   -6.0987058    764.43848    5749.2047      27.0546      59.6399 -0.00028657249  -0.01568428 -0.00019794982 -0.0023978035 
   13000    341.71492    453.47166    198.38268    197.82938    749.15386    5832.9229      27.0546      59.6399 -0.00094450221  0.003343947 -0.00027939924 -0.0055089548 
   14000    341.55385    453.09333   -441.01527   -441.94901    719.84166    5801.2144      27.0546      59.6399 0.00053239058 -0.0098016737 0.00036080911 -0.0097456224 
   15000    335.10142    444.59298   -149.23173   -150.01084    687.65163    5673.0302      27.0546      59.6399 -0.00017686337  0.030330748 0.00011626384  0.023815106 
   16000    340.44982    451.63619    101.26413     100.3506    599.82475    5664.7726      27.0546      59.6399 -0.00019274331  0.018401887 0.00012546619 -0.0043115256 
   17000    340.70482    451.90667    28.882094    27.811053    564.60626    5633.3478      27.0546      59.6399 -0.00077303941 -0.018055246 -0.00054217307 0.0046018746 
   18000    338.72663    448.58611    121.75398    119.07765    640.65081    5679.9623      27.0546      59.6399 0.00067535742  0.013342018 0.00026855328 -0.0057245475 
   19000    339.04369    449.71445   -144.58467   -145.62485    575.00484    5619.0334      27.0546      59.6399 0.0010405002 0.0053008394 -0.00084890996 -0.0086360094 
   20000    341.64565    452.02666    157.15613    153.47324    453.64965    5536.3881      27.0546      59.6399 0.00032115696 -0.0019216499 -0.00031373889  0.041712218 
   21000    339.66952    450.10349    168.67219    166.60987    482.95642    5536.2956      27.0546      59.6399 0.00047784639 -0.0036509953 2.4998949e-05 -0.039769893 
   22000    339.85705    450.37801    197.51976    195.51648    344.53821    5400.6672      27.0546      59.6399 -0.00028405901 -0.010386526 -0.00054260743   0.01524761 
   23000    344.19709    456.55327    159.38408    158.33559    326.21227    5446.9091      27.0546      59.6399 0.00085268725 -0.014559475 0.00013376245 -0.017303207 
   24000    338.38759     448.9703    234.99831    234.25183    476.20431     5510.472      27.0546      59.6399 0.00026338504 -0.014042195 -6.5777857e-05 -0.015951846 
   25000     337.4977    447.51067   -288.94101   -290.33068    254.24389    5275.2724      27.0546      59.6399 -0.0007017046 -0.0084387801 -0.00018178079  0.008096502 
   26000    334.76197    443.09807   -13.555013   -16.749422    277.02843    5257.3569      27.0546      59.6399 -0.00038726228 -0.013979716 -0.00032992892   0.01375952 
   27000    348.12733    461.57116   -46.841069   -48.353262    185.95773    5365.1256      27.0546      59.6399 -0.00036793446   0.01436548 -0.00020389898 -0.015182548 
   28000     344.0369    455.98127    200.46846    198.58887    151.57729     5269.891      27.0546      59.6399 -2.6832515e-05  0.027513093 -0.0004955287  0.010904538 
   29000    333.58659    442.08964    179.09054    177.17334    247.01417    5209.8563      27.0546      59.6399 0.00088270108 -0.0069541859 -0.00089749899  0.027538764 
   30000    338.45577    448.93427    382.79512    381.75592    90.581894    5125.8639      27.0546      59.6399 0.0002052997  0.014316895 0.00031200328 -0.0092838567 
   31000    335.25019     444.6253    86.500969    85.339704    215.99401    5203.5858      27.0546      59.6399 -0.00014764147 -0.019781604 0.00082444145 -0.0040249881 
   32000    334.15341    443.48546   -101.62059   -102.04999    198.28979    5169.5646      27.0546      59.6399 0.00056829087 0.0089151697 0.00048259431 -0.017445881 
   33000    343.65731    456.05313   -156.38502   -156.93261    54.345016    5167.0114      27.0546      59.6399 3.5479983e-05  0.010138344 -0.00024000719 -0.011199448 
   34000    345.14052    458.01441     413.9971    413.43091   -33.061827    5101.6706      27.0546      59.6399 -0.00036393628  0.001542989 0.00016777221 -0.0098513871 
   35000    336.87461    447.00357    423.89083    423.24181    4.5354747    5016.2942      27.0546      59.6399 0.00056786379 0.0056512587 -0.00067998471  0.053677548 
   36000    336.78907    447.13518   -210.19044   -210.27236    9.2174784    5019.7036      27.0546      59.6399 0.00039696807 -0.017480758 0.00054691958 -0.00041581995 
   37000    342.40607    454.56798    249.42299     249.2829   -150.39133    4943.6601      27.0546      59.6399 -7.1096348e-05  0.023683979 0.00025286088 -0.021280351 
   38000    331.89566    440.67025    674.89925    674.89203    47.642877    4985.3286      27.0546      59.6399 1.8687573e-05  0.021447829 0.00058237164 -0.020512394 
   39000    343.27195    455.67532   -162.78346   -163.02147   -157.89674    4949.0366      27.0546      59.6399 -0.00031137468  0.010298584 0.00078938095   0.02565456 
   40000    336.46211    446.67927    200.63962    200.50731    21.239875    5026.8617      27.0546      59.6399 -0.0005485307  0.023132549 0.00041051985 0.0020304276 
   41000    337.39909    447.75176    117.75987    117.23069   -161.24992    4858.3116      27.0546      59.6399 -5.9337231e-05 -0.0090160596 0.00043262758  0.018405084 
   42000    342.85648    454.71318   -119.06081   -120.24832    29.149915    5129.9022      27.0546      59.6399 0.00024389384 0.0018154001 0.0003449673 0.0059027433 
   43000     340.8879    452.10836    545.82251    544.65573    34.297679     5105.763      27.0546      59.6399 -0.00023772797 -0.0074034284 -0.00017827857 -0.022572572 
   44000    337.51166    448.02635    152.01659    151.77683    20.861495    5042.0977      27.0546      59.6399 0.00034875698 -0.0013332597 0.00084134787 -0.0040949369 
   45000    346.85057    460.34434    273.42994    273.00116    41.492215    5201.6655      27.0546      59.6399 0.00021077876 -0.0008045686 -0.00041301106  -0.02314383 
   46000    340.03041    451.04239    181.92266    180.92368    166.28196    5224.9902      27.0546      59.6399 8.9770175e-05 -0.020123471 0.00010251012 0.0047075578 
   47000    339.30015    450.20677   -107.32166   -108.01071    1.1234966    5048.9675      27.0546      59.6399 -0.00054874121   0.02725784 -0.00049373981 -0.046440342 
   48000    337.39769    447.79553    59.446951    59.023311    265.77839    5285.3191      27.0546      59.6399 0.00039919439  0.016747395 -0.0011038939  0.022696579 
   49000    335.26602    445.06342    88.948138     88.75166    191.18836    5179.0156      27.0546      59.6399 0.00017476029 -0.0039506687 -0.00012617976  0.024518205 
   50000    341.11476    452.40423    150.36642    149.18729    84.201476    5159.0418      27.0546      59.6399 -0.00015820532 -0.013602645 -0.00078302332 0.0084235602 
   51000    343.17813    455.34313    12.038853    11.320607    265.81935    5371.3569      27.0546      59.6399 0.00053690417  0.012783653 -0.00045110835  -0.01467275 
   52000    342.28808    454.42937   -332.04705   -332.14539    387.75483     5480.051      27.0546      59.6399 -0.00066264317 0.0060036558 -0.00012440549 -0.016606981 
   53000    342.55863    454.36634    -108.3047   -109.37973    334.61683     5430.938      27.0546      59.6399 -0.00016272846  0.043123612 -0.00026447457 -0.0084206909 
   54000    344.80148    457.56553    77.645805    77.082552     392.5943    5522.2827      27.0546      59.6399 0.00022627611 -0.0091838344 -0.00038518057 -0.00082412139 
   55000    340.39429    451.81212      176.811    176.47496    360.56645    5424.6881      27.0546      59.6399 -0.00067146595  0.050254169 -0.00055086805 0.00045710683 
   56000    334.93815    444.70652   -195.22125   -195.23633    368.83996    5351.7895      27.0546      59.6399 -0.00042253816 -0.024138642 -0.00013224742  0.030742377 
   57000     343.0272    455.20017     262.0065    261.42113     387.5845    5490.8766      27.0546      59.6399 -0.00071396112 -0.0079095692 -7.1081458e-05 -0.0067182828 
   58000    335.44753    445.38867    65.806104     65.80448    414.84926     5405.377      27.0546      59.6399 -0.0007747801  0.057688518 -0.00011255838  0.012880602 
   59000     337.6615     448.3179    77.686546    77.660978    435.97932    5459.4448      27.0546      59.6399 0.0010607819   0.01849335 0.00042538043 -0.0032749624 
   60000    339.09355    450.10632    47.869513    47.582603    426.27083    5471.0412      27.0546      59.6399 0.00041099739 -0.0092674636 -1.1082316e-05 -0.012910433 
   61000    333.41894    442.69373   -382.92907   -382.93413    330.95032    5291.2983      27.0546      59.6399 -0.00086986645  0.015137037 0.00013225526 0.0098606055 
   62000    340.62243    452.23342   -202.72389    -202.7861    442.27984    5509.7957      27.0546      59.6399 -0.00010214756 0.0053953284 0.00036575891 0.0022724873 
   63000    346.56497    460.04212    13.662971    13.412256      468.065    5623.9893      27.0546      59.6399 -0.00013760032   0.03642559 0.00026536745  0.013497452 
   64000    343.53139    456.11589   -464.61715   -464.63285    477.90221    5588.6952      27.0546      59.6399 0.00016705241 -0.010326797 -0.0003507885 0.0017013683 
   65000     346.2967    459.77296   -52.513626   -52.563031    415.05856    5566.9918      27.0546      59.6399 -1.3125145e-05 -0.019917563 -0.00081729465  0.030122837 
   66000    338.05269    448.83298   -42.963772   -42.999354    493.98532    5523.2706      27.0546      59.6399 0.00042243186  0.019026395  0.000120155  0.028065465 
   67000    338.99365    449.96123   -280.11452   -280.43021    436.83363    5480.1177      27.0546      59.6399 0.00081822468 0.0044269741 -0.00032209903 -0.0066487187 
   68000    333.74131    443.04703   -110.04278   -110.22064    494.78853    5459.9324      27.0546      59.6399 -0.00064522961 0.0072968296 0.00013129303  0.016790741 
   69000    333.94612    443.00468    62.330749    61.425899    503.08468    5471.2755      27.0546      59.6399 2.7312055e-05  0.010481381 0.00034401345 -0.011681822 
   70000    334.12743    443.37593    56.014628    55.411675    410.70143    5381.5897      27.0546      59.6399 4.384127e-05 -0.0053588573 0.00023271702  0.052866231 
   71000    337.54988      447.797    412.62245    411.73483    351.92637    5373.7311      27.0546      59.6399 -5.0038331e-05  0.013330199 0.00054467238  0.015553098 
   72000    350.78308    465.63335    35.575766    35.303436    471.45225    5690.1303      27.0546      59.6399 0.00089420847 -0.012801949 0.00028478958 -0.012097225 
   73000    338.44741    449.00523   -81.943343   -82.792722    389.13974    5424.2973      27.0546      59.6399 -0.00033720568 0.0079266235 -0.00054649437    0.0106639 
   74000    337.36251    447.93094   -59.052655   -59.055043    397.53237    5416.5496      27.0546      59.6399 -0.00030865562 -0.011352277 -0.00052168358 0.0074952154 
   75000     334.8529    444.58825   -33.714072   -33.740899    341.40118    5323.0824      27.0546      59.6399 0.00013983172 -0.0062631241 4.0761212e-05 -0.027918331 
   76000    338.87574    449.62415   -256.27456   -257.00782    272.57319    5314.1031      27.0546      59.6399 -0.0001399459  0.018885321 -0.00028754788  0.023390409 
   77000    338.62432    449.55998   -132.05275   -132.16229    270.74604    5308.5356      27.0546      59.6399 -0.00013383994 -0.0069310635 -0.000548428 -0.0001975887 
   78000    332.89932    441.87716    30.820312    30.522332    288.54215    5241.1595      27.0546      59.6399 -0.00071498114  0.025092378 -0.00092897402 -0.016534559 
   79000    338.64955    449.11041    258.22636    256.99946    205.06229    5243.2271      27.0546      59.6399 -6.303451e-05 -0.022493543 0.0010836797   0.01194792 
   80000    341.29034    452.88491   -91.276134   -91.882684    226.76599    5304.2185      27.0546      59.6399 -2.1776164e-05 -0.025883173 0.00017819505 0.0052631146 
   81000    339.88713    451.14206    302.80431    302.47593    176.62792    5233.2046      27.0546      59.6399 0.00062869698  0.019723156 -0.00012143029 -0.0048234378 
   82000     342.2335    454.06654    4.0630091    3.2930444    100.68124    5192.1653      27.0546      59.6399 0.00035799514 -0.013254919 -5.3122622e-05 -0.013487734 
   83000    335.88679      445.837    251.13643    250.82279    95.672068    5092.7348      27.0546      59.6399 0.0010336865   0.03088822 -0.00037505491 -0.0092816347 
   84000    333.77048    443.00099    53.866826    53.492864    64.520571    5030.0984      27.0546      59.6399 0.00016619886 -0.018166491 0.00029553125 -0.004392976 
   85000    345.19116    458.23572    952.35815    952.14832    64.836142     5200.322      27.0546      59.6399 0.00024662931  0.022048881 0.00034242174 -0.0017935941 
   86000    338.44496    449.24673    86.613635    86.330357    17.029643    5052.1508      27.0546      59.6399 0.00056804479  0.014391348 0.00013399596 0.0091374867 
   87000     336.2154    446.40844    -120.0648   -120.06587    107.44772    5109.3992      27.0546      59.6399 8.3646037e-05  0.022930651 -0.00041772246 -0.00060998904 
   88000    341.53289    453.44459    409.77641    409.71954    73.590904    5154.6518      27.0546      59.6399 0.0016969149  0.051294887 -0.00067011771   0.01681622 
   89000    339.57288    450.82812   -76.959062   -77.048514    191.06327    5242.9648      27.0546      59.6399 -0.00045522485 0.0066073627 0.00072580482  0.014881828 
   90000    337.70708    448.38054   -222.89186   -222.91252    116.25048     5140.394      27.0546      59.6399 -0.0014130408  0.016545657 -0.00051406143 -0.025958607 
   91000    344.80984    457.81391   -204.11948   -204.13392    197.90981    5327.7227      27.0546      59.6399 -0.00058916277 -0.012098317 2.0775073e-06 0.0068903674 
   92000    343.84673    456.53287    -94.54236   -94.562047    149.41706    5264.9016      27.0546      59.6399 -0.00028042089 -0.0017755386 1.067518e-05 -0.0081390226 
   93000    340.84485    452.54736   -93.940285   -93.959423     48.99131    5119.8161      27.0546      59.6399 -0.00048048433 -0.0012874022 0.00054773648  0.022175465 
   94000    340.75348    452.38506    425.90245    425.78849    40.415566    5109.8811      27.0546      59.6399 -0.00039953896  0.030885301 0.00028733323 -0.0025018545 
   95000    338.43752    449.35383    53.411071    53.398392    132.34847    5167.3589      27.0546      59.6399 0.00066307667 -0.0025511294 0.00021705975  0.014372097 
   96000    342.73719    454.94991   -94.222634   -94.496235    25.344108    5124.3218      27.0546      59.6399 0.00032033508  0.010652906 0.00067029088 0.0020203216 
   97000    340.11045    451.48511    291.63558    291.41485    231.24913    5291.1481      27.0546      59.6399 -0.00058670839 -0.011134149 -0.00057128469 -0.00058989657 
   98000     330.1756     438.3436    87.696501    87.590137    138.23961    5050.3357      27.0546      59.6399 0.00023190228  0.019722402 -0.00032001583 -0.0018658286 
   99000     343.1521     455.5311   -135.60924   -135.81276    91.674653     5196.825      27.0546      59.6399 -0.0011252481  0.032357533 -0.00059104189 -0.00061505181 
  100000    336.72511    447.08541    229.85003    229.84943    185.99425    5195.5288      27.0546      59.6399 -0.0003743745   0.01611866 -0.00069779752 0.0047162458 
  101000    341.49123    453.39193    56.479831    56.429077    226.41107    5306.8523      27.0546      59.6399 0.00076229853    0.0275207 -0.00031989645  0.013719998 
  102000    339.66283    450.76095    33.606072    33.085036    76.735579    5129.9752      27.0546      59.6399 0.00060131028 -0.0061646587 0.00022776199  0.028832099 
  103000     342.3351    454.41308    280.73614    280.45572    165.65704    5258.6527      27.0546      59.6399 -0.00040281677  0.012133419 0.00068649498 -0.017106346 
  104000    341.73433    453.66485   -99.999521   -100.16558    150.50064    5234.5584      27.0546      59.6399 -0.00016347643  0.019332256 -0.0007193306  0.025751179 
  105000    337.57755    448.19136     136.0938    136.03335    294.41638    5316.6329      27.0546      59.6399 -0.00056181512  0.035655157 -0.00023573692   0.02648946 
  106000     344.9405    457.99147   -135.72152   -135.72653    195.66051    5327.4173      27.0546      59.6399 -0.00055161471  0.019648608 0.00074646762 -0.0065998308 
  107000    335.80225    445.85926    63.084277    63.081792    278.74126    5274.5461      27.0546      59.6399 3.5190748e-05  0.016664522 -0.00098157519 0.0038766373 
  108000     336.4858    446.76666   -294.16528   -294.16822    251.10802    5257.0823      27.0546      59.6399 -6.7655605e-05 0.0012049252 -0.00078318918 0.0021111687 
  109000     335.5638     445.5184   -107.06075   -107.11934     254.6088    5246.8662      27.0546      59.6399 -0.00014810882  0.024510111 -0.00021271844  -0.01826042 
  110000    343.44871    455.84438   -59.413299   -59.803103    299.41504     5408.978      27.0546      59.6399 0.00016863162 0.0011421676 0.00020913873 -0.00021081773 
  111000     340.8946    452.61336   -302.62025   -302.63953     298.0257    5369.5907      27.0546      59.6399 -0.00065676622  0.039096893 -0.00082194925 0.0087145138 
  112000    334.35411    443.87242    33.423951    33.273237    256.83943       5231.1      27.0546      59.6399  0.000133244  0.008851771 9.0318732e-05 -0.0028046638 
  113000     342.8035    455.11316    81.235251    81.135627    317.80712    5417.7712      27.0546      59.6399 -0.00034849839 -0.009955616 0.00081782997 0.0021107897 
  114000    348.62404    462.82795    218.96283    218.83218    270.40415    5456.9617      27.0546      59.6399 0.00010896533 -0.0052959349 -1.4250875e-05 -0.0097583261 
  115000      333.917    443.35714    127.24794    127.24778    301.49616    5269.2538      27.0546      59.6399 -0.00061737796   0.03126618 -0.00026320932  0.053979609 
  116000     337.6619    448.24002    426.50455    426.29759    187.80391    5211.2753      27.0546      59.6399 -0.00038969025   0.02492401 -3.8480547e-05 -0.025999114 
  117000    340.12231    451.59627   -236.81619   -236.81623    233.56659     5293.642      27.0546      59.6399 0.00027990951  0.025179692 0.00055339513 -0.00064753876 
  118000     339.1623     450.2421   -104.20116   -104.38512    265.04464    5310.8377      27.0546      59.6399 -0.0016336306 -0.001353223 0.00015953191 -0.008779619 
  119000    326.78016    433.86306    89.610913    89.568746    252.12108    5113.7023      27.0546      59.6399 0.0010372997  0.017014696 0.00026696721 0.0010290317 
  120000    347.65114    461.58959   -396.56626    -396.5734    236.90347    5408.9871      27.0546      59.6399 -7.6636351e-05  0.038804489 -0.00055627671 -0.026208515 
  121000    344.60408    457.54072   -55.360899   -55.375293    250.77154    5377.5233      27.0546      59.6399 -0.00069585508 -0.023905186 -0.00019394932 -0.012180383 
  122000     342.8123    455.15463   -475.20155   -475.23226    242.72134    5342.8163      27.0546      59.6399 -0.00045174877 -0.010942644 -0.00013331048  0.010812177 
  123000    339.85501    451.19501    134.76024    134.65297    335.01969    5391.1185      27.0546      59.6399 -2.4416154e-05 -0.035517036 -1.883079e-05  0.017193465 
  124000    334.05777    443.52177   -403.50781   -403.55949    312.95349    5282.8054      27.0546      59.6399 -0.00025409406 -0.012295848 0.00036148325  0.023041063 
  125000    344.70567    457.67917   -16.497033   -16.503167    362.02786    5490.2909      27.0546      59.6399 -0.0002572492  0.011488219 -0.00089839001  0.023336699 
  126000    339.88395    451.20426   -641.47032   -641.64507    189.63592    5246.1652      27.0546      59.6399 -0.00025929307 -0.0032285398 0.00052508748 -0.0038651602 
  127000    339.87304    451.25213   -90.579759    -90.61027    113.50286    5169.8699      27.0546      59.6399 7.0266856e-05 0.0013565583 0.00076190424 0.0067958462 
  128000    336.38851    446.51471   -61.135931   -61.422827    241.56315    5246.0899      27.0546      59.6399 0.00032696102 0.0063407521 -0.0005622989 0.0071488415 
  129000    336.19455    446.16393   -276.48205   -276.98465    253.27902    5254.9203      27.0546      59.6399 0.00019019102 -0.00056463337 -0.0003410988 -0.028275998 
  130000    341.95396    453.94885   -302.23996   -302.42363    278.10548    5365.4308      27.0546      59.6399 0.00017371771  0.028038468 0.00096541248 -0.0028685043 
  131000    333.27229    442.37628    71.177655    70.888728     120.9075    5079.0736      27.0546      59.6399 0.0004352895  0.016579943 -0.00053420501 0.0031818981 
  132000    342.98273    455.37719    40.163073    40.123715    270.08411    5372.7147      27.0546      59.6399 -0.00024782628 0.0037108497 0.00041762284 -0.0099969544 
  133000    337.97713    448.74354    269.59785    269.58744    213.62724    5241.7884      27.0546      59.6399 -0.0006331813  0.025882075 0.00018711427  0.014321413 
  134000    339.33354    450.54836   -433.85914   -433.86062    157.59029     5205.931      27.0546      59.6399 -0.00023858495 -0.012663822 -0.00030985082 0.0028852471 
  135000    333.47247    442.73901    -113.6754    -113.7401    118.76881    5079.9131      27.0546      59.6399 -0.00039337193  0.055429054 0.00083104873  0.051390458 
  136000    344.56313     457.4841    153.68906    153.66944    227.77403    5353.9166      27.0546      59.6399 0.00012857527 -0.0070660904 -0.00023280647 0.0053964752 
  137000    338.16308    448.99469    160.48722    160.48667    207.14348     5238.071      27.0546      59.6399 -2.4801599e-05 0.0047069713 5.9191918e-05  -0.00715285 
  138000    344.19392    456.65619    79.606268    78.805556     244.0425    5364.6922      27.0546      59.6399 0.0011640765  0.012481286 0.0010165182  0.014663495 
  139000    346.64647    459.97939   -183.41454   -184.06064    279.52402    5436.6608      27.0546      59.6399 3.4383948e-05  0.011692041 -7.514219e-05 -0.009045207 
  140000    347.65969    461.25927   -382.60953   -383.40697    14.420586    5186.6314      27.0546      59.6399 -2.8265072e-05 -0.022791819 -0.00047075945 -0.006020595 
  141000    348.11908    462.11675    415.97088    415.74601    131.51566    5310.5608      27.0546      59.6399 0.00024441707  0.010472704 -2.6072592e-05 -0.030390337 
  142000    337.58645     448.2293     423.2124    423.21239    102.82392    5125.1728      27.0546      59.6399 0.00031646033  0.045361745 -0.00037046729 -0.012735024 
  143000    346.87522    460.55756    266.19184    266.18055   -9.1073128    5151.4327      27.0546      59.6399 6.7203334e-05 0.00051839192 0.00039515215 -0.012585625 
  144000    337.35322    447.90341    422.23827    422.20075     202.1327    5221.0118      27.0546      59.6399 -0.00017487581 0.0072035394 -0.00036848486  0.011510663 
  145000    330.83633    439.25776   -150.11907   -150.14011    47.696094    4969.6219      27.0546      59.6399 0.00030865184 0.0067354073 0.00019165326  0.035576045 
  146000    340.82192    452.47493    612.27708    612.16082    102.55426    5173.0379      27.0546      59.6399 1.2592761e-06  -0.01358474 -0.0005653357 -0.014762994 
  147000    343.70588    456.29368    166.48453    166.34417    132.42871    5245.8177      27.0546      59.6399 -0.00045406092 -0.0018707097 -0.00050376298 -0.0026127366 
  148000    338.88915    449.93765     54.81392    54.764607    110.05083    5151.7803      27.0546      59.6399 0.00012911376 -0.0048176031 -0.00024590663 0.0070714053 
  149000    335.83894    445.90026    151.14285    151.12249    118.70057    5115.0514      27.0546      59.6399 0.00050860345  0.016892625 0.0003516361 -0.014205063 
  150000    340.73177    452.34196    254.68256    254.53561    25.508635    5094.6511      27.0546      59.6399 -0.00021970364 -0.028635167 8.3789351e-05 -0.007679203 
  151000    332.37018    441.26622   -392.09845   -392.18451    147.04923    5091.7945      27.0546      59.6399 -0.00012929492 0.0025889078 8.6445374e-05 -0.009767688 
  152000    340.01463     451.4222    42.831781      42.7598     32.69021    5091.1637      27.0546      59.6399 -0.00022206496 -0.0065334956 0.00056475587 0.0027032105 
  153000    342.76523    455.08385    19.226297     19.17641    185.54997    5284.9447      27.0546      59.6399 0.00037486747 0.0074805782 0.0001891897 -0.024301026 
  154000    341.27582    453.12027    64.885889    64.868333   -1.2518356    5075.9846      27.0546      59.6399 -0.00011321614  0.012380805 -0.00013442557 -0.016766827 
  155000    335.65568    445.64575   -63.693653   -63.739877    217.52585    5211.1502      27.0546      59.6399 0.00056795144 -0.011304105 0.00033585301 0.0022542834 
  156000     336.1283    446.27814   -336.99185   -337.02681      65.3413     5065.997      27.0546      59.6399 -0.0022855206  0.020141047 0.00011619591 -0.025963171 
  157000    340.29716    451.75626    193.74544    193.57849    80.652541    5143.3292      27.0546      59.6399 0.00014382178  0.018555348 -4.2054033e-05 0.0079518335 
  158000    336.93766    447.24639   -225.48433   -225.76533    230.09556    5242.7922      27.0546      59.6399 -0.00069881033 -0.0083824919 -7.8420186e-05 -0.0025000351 
  159000     343.5851    456.17725   -97.666578   -97.705311    287.44979    5399.0419      27.0546      59.6399 0.00051913657  0.012693612 -3.9457278e-05 0.00048049304 
  160000    336.29438    446.47064   -70.745573   -70.845318    199.75732    5202.8837      27.0546      59.6399 -0.00089375611  0.019129424 -2.0023982e-05 -0.0035954129 
  161000    346.92133    460.60069   -96.386762   -96.439903    154.29844    5315.5244      27.0546      59.6399 -4.8268522e-05 -0.0042226641 -0.00027652443  0.040993984 
  162000    340.62844    452.07029    175.06805    174.61003    247.76544    5315.3707      27.0546      59.6399 0.00030122143 0.0060422483 -8.5068047e-05 -0.0078119663 
  163000    334.74715    444.43914   -114.64667   -114.69359     197.0995    5177.2074      27.0546      59.6399 0.0010330131 -0.0086237561 -0.00060079196  0.022253798 
  164000    339.21286    450.20521    29.291673    28.867098    256.75728    5303.3026      27.0546      59.6399 0.00044814799    0.0045531 -0.00016447388 -0.043986297 
  165000    337.08064    447.52659   -220.90021   -220.97221     93.30757    5108.1314      27.0546      59.6399 -5.2653225e-05 -0.0012690622 0.00021608995  -0.02930172 
  166000    340.94688    452.68052    181.46181    181.43733    90.554853    5162.8976      27.0546      59.6399 0.00076387642 -0.0085242546 0.00039192425  -0.01293337 
  167000    340.52894    452.13569    267.79256    267.79139    176.27144    5242.3965      27.0546      59.6399 -6.9537549e-05  0.049199507 -0.00025828097  0.013655399 
  168000    346.65376    460.21759    218.91896    218.80143    188.58924    5345.8346      27.0546      59.6399 -0.00030017379  0.010911054 0.00024206986 -0.027708937 
  169000    342.19682    454.30414     159.8655    159.75778    175.04739    5265.9857      27.0546      59.6399 0.00056266894 -0.015704458 0.00052090937 0.0029491346 
  170000    342.44826    454.68455    164.14296    164.14294     258.6923    5353.3714      27.0546      59.6399 0.00013933664 0.0019497459 0.00040346788    0.0224704 
  171000    338.79613    449.81826    -249.7812   -249.82098    300.44225    5340.7878      27.0546      59.6399 -0.00053291704 -0.010297956 -0.00066812255  0.016218401 
  172000    336.27988    446.45404   -225.55175   -225.64539    313.24918      5316.16      27.0546      59.6399 0.00017437314  0.042268557 -0.00035350615 -0.00039191785 
  173000    341.48506    453.38601    82.977022    82.931554     276.9256    5357.2749      27.0546      59.6399 -0.00036727983 0.0099131393 0.00017765798  0.022795412 
  174000    344.29343    457.03407    30.872684    30.640428    249.72608    5371.8562      27.0546      59.6399 0.0011485093  0.048811124 -0.00018034892 0.0035202774 
  175000    339.68805    451.01014   -9.3400584   -9.3621861    211.46643    5265.0813      27.0546      59.6399 0.00030657333 0.0031741908 -0.000855008  0.011208077 
  176000    341.74818    453.74728    85.793857    85.775915    151.04002    5235.3039      27.0546      59.6399 0.00028302424 -0.00097012317 0.00016802827  0.001536143 
  177000    337.63553      448.293   -145.69671   -145.70011    200.73144    5223.8105      27.0546      59.6399 -0.00043650587 0.0044586956 0.00058800158 -0.0052449561 
  178000    342.18451    454.32847    362.52639    362.51276    213.46274     5304.218      27.0546      59.6399 0.00019131662 -0.0083472099 -4.5645395e-06 -0.012444329 
  179000    339.20845    450.33419    471.80387    471.69119    206.65009    5253.1298      27.0546      59.6399 0.00035745536  0.019427442 3.2206745e-05  0.033004503 
  180000    335.75446    445.79183    246.82551    246.81383    247.60053    5242.6944      27.0546      59.6399 -0.00029000771  0.008862176 0.00040232456  0.006784932 
  181000    337.76838    448.46293    280.46418    280.44582     215.1558    5240.2113      27.0546      59.6399 0.00090737915 0.0018446135 -0.00020475433 -0.023273648 
  182000    335.60704    445.60115   -138.42812   -138.42813    338.26764    5331.1684      27.0546      59.6399 -0.00026457607  0.026252473 0.00020033727 0.0053716326 
  183000    334.44917    444.06378   -114.74621   -114.74624    204.49785    5180.1727      27.0546      59.6399 -0.0003745588 -0.004840458 -0.00066604029  0.023977218 
  184000    348.17807     462.2922     69.57411    69.573888     173.1979    5353.1207      27.0546      59.6399 -0.00038078552 0.0028331741 0.00010616391 0.0015280291 
  185000    342.82637    455.12115    49.208449    49.057067    351.05077    5451.3551      27.0546      59.6399 0.0010151952 -0.021355306 -0.00047510343  0.041748562 
  186000    350.69127    465.62531    247.68121    247.67223    288.45281     5505.765      27.0546      59.6399 2.1380027e-05 0.0027505368 0.0012810608 -0.0020142281 
  187000    340.94673    452.63194    66.692249    66.555847    251.89348     5324.234      27.0546      59.6399 0.00029123883  0.023884034 -0.00044196006 -0.031144823 
  188000    340.89489    452.61539     -200.594   -200.60946    233.74521    5305.3144      27.0546      59.6399 7.8891799e-05 -0.015460326 0.00011667842  0.017880109 
  189000    343.31972    455.81929     -125.303    -125.3547    358.35815    5466.0022      27.0546      59.6399 0.00079056125 0.0037049652 -0.00012230709  0.015906111 
  190000    343.79058    456.43347   -366.41891   -366.49606    253.53212    5368.1812      27.0546      59.6399 -9.3330975e-05 0.0067822831 0.00020338014 -0.015988903 
  191000    346.65568    460.24737    258.89031    258.83575    306.05282    5463.3267      27.0546      59.6399 0.0011926036  0.033222082 -0.00011672432 -0.014062746 
  192000    341.62659    453.54344     54.81266    54.696634    266.54197     5348.997      27.0546      59.6399 -0.0004774196 0.0059831862 0.00030360714  0.015176232 
  193000    342.29558    454.47774    77.711393    77.701924     180.6052    5273.0128      27.0546      59.6399 0.00026703132 -0.024360564 -2.8886609e-05 0.0023463722 
  194000    333.81959    443.21653     -241.467   -241.49322    167.60372    5133.9122      27.0546      59.6399 0.00054588963  0.018153861 -8.8438496e-06 0.0027551564 
  195000    337.01288    447.46248   -113.74462   -113.75683    169.87848    5183.6942      27.0546      59.6399 0.00067372016  0.028393733 0.00027148683  0.053111186 
  196000    336.82522    447.18281    90.438669    90.355897    282.50205     5293.526      27.0546      59.6399 -0.00023394045 -0.018700076 0.00049999172 0.0013107362 
  197000     353.8239    469.59004   -35.705912   -36.165039    179.31573    5443.2328      27.0546      59.6399 -0.00033989829 0.0064524453 -0.0006048792 -0.016467643 
  198000    339.65211    450.90535    198.16971    198.01559    326.72096    5379.8011      27.0546      59.6399 -0.00057896485 -0.0081417118 0.00037487901 -0.0099870731 
  199000    337.34683    447.78937    8.0807826    7.7990901    271.48481    5290.2689      27.0546      59.6399 0.00011476122  0.008780849 0.00053943192 0.0049677793 
  200000    332.13613    440.99226    273.03956    273.03861    188.16604    5129.4293      27.0546      59.6399 0.00044400304 -0.0027682445 -0.00030241594 -0.021328077 
  201000    335.99347    446.11379    26.614364    26.613337    198.59032    5197.2401      27.0546      59.6399 0.00074339132  0.036281354 0.00034910072 -0.0041119505 
  202000    346.15428    459.60215    -20.33641   -20.343493    153.53773    5303.3521      27.0546      59.6399 -0.00035202422 0.0054162425 0.00041554648  0.019181949 
  203000    340.76579    452.39889   -49.934462   -50.054218    313.48794    5383.1365      27.0546      59.6399 -0.00017447117 -0.0088710674 -0.00011376794 -0.0032151344 
  204000     336.5461    446.81318   -20.605741   -20.686236    215.18909    5222.0604      27.0546      59.6399 -1.2123416e-05 -0.033405915 0.00013092107 -0.017191111 
  205000    346.38952    459.91661   -100.36609   -100.36828    233.94626    5387.2604      27.0546      59.6399 -9.8487642e-05 0.0048914771 0.00021656748 -0.0065073158 
  206000    346.88654    460.53428   -1.2550458   -1.3549612    151.77392    5312.4824      27.0546      59.6399 8.3080286e-05  0.022287872 -0.00038103986 -0.015208649 
  207000     339.2839    450.45291    116.97981    116.90998    230.84972     5278.452      27.0546      59.6399 -5.2374126e-05 -0.027483338 -0.00023521796 -0.020806605 
  208000    340.48002    452.05053    6.2174876    6.1695952    66.770664    5132.1678      27.0546      59.6399 0.00013932631 -0.016027171 0.00038211567 -0.024672254 
  209000    344.99906     458.0212   -101.88824   -102.00429    217.74127    5350.3692      27.0546      59.6399 0.00019700887 -0.012560763 0.00013285773   0.01338395 
  210000    342.33942    454.52992   -342.03609    -342.0595    104.93472    5197.9945      27.0546      59.6399 0.00047808969 0.0093583019 0.00023219251 -0.011701361 
  211000    344.45556     457.3455    88.120746    88.110921    197.26201    5321.8041      27.0546      59.6399 -8.0501812e-05 -0.0084662994 -0.00016626258 0.0014944311 
  212000    343.89531    456.57367    102.37486    102.30036    130.01864    5246.2258      27.0546      59.6399 0.00023107069  0.017958978 -0.0008934494 -0.0039977741 
  213000    337.75146    448.44838    201.40402    201.40397    133.04156    5157.8453      27.0546      59.6399 0.00032881445 -0.0052155371 0.0002410636 0.0013108985 
  214000    342.77495     455.0478    39.598179     39.43504     181.9596     5281.499      27.0546      59.6399 -5.4084004e-05 -0.0017964559 0.0014006149 0.0039728974 
  215000    338.71967    449.70375   -113.77394   -113.84377    181.71167    5220.9197      27.0546      59.6399 0.0011682644 0.0082402014 -0.00017339756  0.011559791 
  216000    338.79085    449.79933   -179.03873   -179.10608    310.22788    5350.4949      27.0546      59.6399 -4.7241157e-05  0.015393068 0.00035457447 -0.013638202 
  217000    339.70922    451.04616   -69.906895   -69.910702    211.90195    5265.8318      27.0546      59.6399 -4.8767872e-05 0.0015540073 -0.00046891866 0.0060386705 
  218000    330.98044    439.42217   -121.98874   -122.07208    186.83278    5110.9026      27.0546      59.6399 0.00072896504 -0.019607188 -0.00080248791  0.002421093 
  219000    335.83301    445.87012    158.22744    158.15559    165.45337     5161.716      27.0546      59.6399 0.00036540631  0.011153545 -0.00055484486   0.01936179 
  220000    344.36231    457.14692    78.390713     78.20795     244.0126    5367.1674      27.0546      59.6399 0.00064819024 -0.017541955 0.00047056818  0.030959674 
  221000    346.36077    459.79477    88.929815    88.734102    124.67353    5277.5599      27.0546      59.6399 0.00015866283 -0.011239943 6.6064387e-05  0.036344794 
  222000    339.52961    450.55134    239.86851    239.27176     169.2958    5220.5535      27.0546      59.6399 -8.4511566e-05  0.022401853 -0.00015536312 -0.009256623 
  223000    344.96567    457.97081    290.93032    290.80026    207.56831    5339.6995      27.0546      59.6399 0.00049769583 -0.016406649  0.000223187 0.00051697207 
  224000    337.85507    448.53782   -179.20471   -179.31608    205.22454    5231.5698      27.0546      59.6399 0.00026451111   0.03049595 -5.9579389e-05 0.0035813683 
  225000    335.38764    445.09989   -74.928735   -75.414374    191.22359    5180.8603      27.0546      59.6399 0.0012120461 0.0068998575 -0.00058936519  0.042878431 
  226000    341.03891    452.76269   -31.055714   -31.172776    300.36458    5374.0765      27.0546      59.6399 0.00012230919  0.017951306 0.00034638354 0.0027962289 
  227000    338.05408    448.77828   -244.94267   -245.10904    335.78807    5365.0941      27.0546      59.6399 -0.0003016378  0.018010866 0.00051124481 0.0092260918 
  228000    340.43027    452.00509   -160.21419    -160.2144    341.81837    5406.4754      27.0546      59.6399 -0.00028682066 0.0090976006 0.0013364515  0.036798759 
  229000    343.19267    455.66547    258.69368    258.67638    178.25184    5284.0058      27.0546      59.6399 9.8629579e-05 -0.0092374705 -0.00023149017 -0.0082915337 
  230000     339.3515    450.53766   -179.29271    -179.3741    261.24753    5309.8555      27.0546      59.6399 -0.00054727722 0.0020869895 -0.00010904929 -0.013779553 
  231000    346.75193    460.38576    260.77907    260.74902    262.21578    5420.9216      27.0546      59.6399 -0.00063555998 -0.001355225 0.00027558789  0.014892078 
  232000    338.61681    449.59591    293.73737      293.734    402.55068    5440.2285      27.0546      59.6399 -0.0004236966 -0.0041214783 -0.0010543208  0.018749249 
  233000    337.79774    448.44411    -145.2629   -145.41496    218.09762      5243.59      27.0546      59.6399 0.00026056624 -0.010848697 0.00025987948 -0.031905599 
  234000     337.4931     448.0927    66.308005    66.278706    182.10317    5203.0633      27.0546      59.6399 0.00035297991 -0.009830066 -0.0001858206 -0.00023848647 
  235000    336.75607    447.12655    -231.2287   -231.22923    226.74965    5236.7449      27.0546      59.6399 0.00029797729 0.0030065075 0.00033187404 0.0067313582 
  236000    338.77713    449.79918   -69.760394   -69.785966    281.48063    5321.5435      27.0546      59.6399 -0.00070289764  0.015328335 0.00039304303   0.03008534 
  237000    343.59869    456.21084   -258.43217   -258.43495    264.62481    5376.4191      27.0546      59.6399 8.5844874e-05 0.0033541048 -0.00029527504    0.0157408 
  238000    340.05731    451.50897    166.87804     166.8757    219.91418    5279.0226      27.0546      59.6399 -0.00021259047 -0.033339272 -0.00012821037  0.046239822 
  239000    332.24391    441.12922    113.24725    113.23211    105.37623    5048.2429      27.0546      59.6399 0.00095400975 0.0064466065 0.00016481972 -0.011463037 
  240000    341.73189    453.73256   -224.69828   -224.70025    263.22986    5347.2514      27.0546      59.6399 -0.00033795594 -0.0087890671 -0.00098478586 -0.0051345169 
  241000    344.18761    456.99375   -125.86023   -125.86076    297.73264    5418.2885      27.0546      59.6399 0.00050772963  0.029693988 -9.63156e-05  0.015787092 
  242000    338.98555    450.00814    164.64377    164.46146    270.03625    5313.1999      27.0546      59.6399 -0.00065978243 -0.0038326447 -1.4342602e-05 0.0038203657 
  243000    347.12057     460.8841   -25.376922   -25.386413    188.16779    5352.3579      27.0546      59.6399 0.0004040069 -0.0013350336 -0.00024444543 -0.013616554 
  244000    339.61592    450.90453    66.020125    65.975252    153.18042    5205.7222      27.0546      59.6399 -2.4962642e-05 0.0039514201 -0.00020717543  0.035036517 
  245000    331.79567    440.49685   -129.03587    -129.1371     220.6886    5156.8867      27.0546      59.6399 8.6358949e-05 0.0033835061 -0.00068745651 -0.023907959 
  246000    344.89246    457.90184   -390.82865   -390.89343    162.43375    5293.4758      27.0546      59.6399 8.5004651e-05 -0.016070109 -0.00029983529 0.0021176598 
  247000    340.21231    451.68296    1.1850016    1.1090742     165.9582    5227.3726      27.0546      59.6399 -0.00044513936 0.0060703322 -0.00057256694  -0.01727083 
  248000    339.56361    450.81436    378.64317    378.55039    197.77249     5249.536      27.0546      59.6399 -0.00044860327  0.029530441 -0.00011570143 -0.001025234 
  249000    338.98299    450.03144    12.008325    11.887753     225.2833    5268.4089      27.0546      59.6399 -0.00074309376 0.0029338981 0.00010448686  -0.01956774 
  250000    343.43084     455.7875    410.06258     409.5961    241.78869    5351.0858      27.0546      59.6399 -0.0003446711 -0.032209146 -8.8117974e-05  0.022028347 
  251000     341.8717    453.84179    55.672736     55.49407    212.35866    5298.4602      27.0546      59.6399 0.00053862313  0.016736685 0.00018787171  0.010016588 
  252000     345.1355    458.20198   -186.29543   -186.41237    30.594293    5165.2521      27.0546      59.6399 -0.00058696114  -0.01254974 0.00044159453 -0.023303526 
  253000    339.22484    450.31284    115.61249    115.40008    195.96463    5242.6882      27.0546      59.6399 0.00020880985 -0.0061176322 0.00097968968 -0.013128059 
  254000     344.7831     457.7293    230.18653    230.05853     156.1187    5285.5338      27.0546      59.6399 -0.00069249875  0.023491145 -0.00037107464 0.0016022044 
  255000    339.67376    451.00046   -222.82591   -222.82652    125.60118    5179.0034      27.0546      59.6399 0.00013358081 -0.0017181477 -0.00017218166 0.0078728438 
  256000    341.85225    453.87803    261.85142    261.81633    116.21977    5202.0319      27.0546      59.6399 0.00039460931 0.0095557403 0.00010000178 -0.013175125 
  257000    338.47105    449.38886    216.09237    216.05773    148.09672     5183.606      27.0546      59.6399 -0.00023921813  0.032722542 -7.0933675e-05  0.002573385 
  258000    344.50261    457.36841    8.7750179    8.6737036    114.10919    5239.3513      27.0546      59.6399 -0.00014908802  0.028698597 0.00099772087 7.2563765e-05 
  259000    340.43488    451.99561    47.290536    47.254261     38.60746     5103.333      27.0546      59.6399 -0.00027285077 -0.019378413 -5.3012866e-05 -0.001296264 
  260000    334.71072    444.41093    410.29441     410.2941    65.907211    5045.4732      27.0546      59.6399 -0.00013262783  0.002878449 2.5104763e-05  0.010126546 
  261000    341.12528    452.89522    45.156299    45.080521     157.0489    5232.0458      27.0546      59.6399 -0.00032021223 -0.022261753 -0.00010326868  0.021945872 
  262000    343.52448      456.084   -130.04679   -130.11504    27.697576    5138.3878      27.0546      59.6399 -1.3969158e-05 0.0099468835 -0.00017772243 -0.019506075 
  263000     332.1321     440.9129   -20.200445   -20.372569    93.071865    5034.2752      27.0546      59.6399 -0.00055316655 -0.00015270999 5.5575656e-05  0.023479866 
  264000    345.68233    458.94974   -89.156328   -89.223056    40.495232    5183.2883      27.0546      59.6399 -0.00033249725  0.013814092 -0.00017626842 0.0022115807 
  265000    344.26002    457.06954    125.00407    124.95646    66.234557    5187.8676      27.0546      59.6399 -0.00024501612 -0.0072975372 7.8475649e-05 -0.013025866 
  266000    338.54898    449.46771    27.672597    27.581024    4.6173489     5041.286      27.0546      59.6399 -0.00045372351 7.8146791e-06 -0.00046027767 -0.0098111602 
  267000    344.26096    457.04742   -372.00343   -372.10507    41.623866    5163.2709      27.0546      59.6399 -0.00055637624 0.0091419309 -0.00020458936 0.00028233921 
  268000    340.35826    451.70067    301.94767    301.46448    128.87797    5192.4636      27.0546      59.6399 0.00057522425 -0.017988885 -0.00047494119 -0.0083814494 
  269000    343.73951    456.38842   -5.0358834   -5.0603717    21.520662    5135.4099      27.0546      59.6399 -0.0002834883 0.0097524337 0.00019897537 -0.011065212 
  270000    330.93362    439.38891    312.92017    312.90371    189.71566    5113.0888      27.0546      59.6399 -0.00039828925  0.011938678 0.00071124591  0.030514216 
  271000    345.01967    457.84512    102.05579    101.46914   -5.8717396    5127.0628      27.0546      59.6399 0.00086973312  0.017209389 -5.4552229e-05 -0.0020598024 
  272000    335.34074    445.15527    302.69697    302.48346     83.08487    5072.0238      27.0546      59.6399 0.00060578002 -0.0081312981 -0.00033434134 4.5629356e-05 
  273000    344.15511    456.93586   -204.06955   -204.10418    204.05146    5324.1238      27.0546      59.6399 -0.00061985728 -0.011240605 -1.9835719e-05 -0.022050102 
  274000    352.41992    467.90345   -163.90887   -163.95733     141.1813    5384.2111      27.0546      59.6399 0.00055404613 0.0014795306 0.00061114131  0.021094903 
  275000     338.5937    449.45474    86.555798     86.29688    263.70349    5301.0374      27.0546      59.6399 0.00028631152 -0.0016984051 -9.5946717e-05 0.0036234182 
  276000    340.62004    452.23888   -324.34287   -324.38511    146.97383    5214.4541      27.0546      59.6399 -0.00055402987 -0.010523067 -0.0002084318  0.011111013 
  277000    338.50272    449.41286    6.4731068    6.3967196    167.05717    5203.0377      27.0546      59.6399 0.00041919701 -0.033534192 0.00057245844 0.0097805895 
  278000    340.95374    452.67954   -21.087105   -21.134945    320.70928    5393.1541      27.0546      59.6399 -0.00059755964 -0.028203089 -0.00028812345 -0.021632651 
  279000    332.01183    440.79717    182.90899    182.83855    243.85175    5183.2657      27.0546      59.6399 -0.00029922568 -0.0086798679 -0.00033910288 -0.0052499152 
  280000    348.76342     462.9597    43.675499    43.421536    248.71235    5437.3436      27.0546      59.6399 0.00083127355 0.0084801424 0.00040463311 -0.026216053 
  281000    337.57523     448.1962    204.22314    204.18101    207.43169    5229.6137      27.0546      59.6399 -4.8563042e-05   0.02215389 2.8624695e-06 -0.0095769627 
  282000    344.11088    456.88721   -84.756654   -84.767955    72.241747     5191.656      27.0546      59.6399 8.4899658e-05 -0.018034816 -0.00036764987 -0.010915836 
  283000    336.23853    446.42127   -65.669203    -65.71164    243.38952    5245.6851      27.0546      59.6399 -0.00015176207  0.046101171 0.00041506504 -0.0097572553 
  284000    337.12063    447.44503    281.38344    280.99998     123.5968    5139.0155      27.0546      59.6399 0.00052167785 -0.012669847 -0.00035427792   0.00126795 
  285000     341.3593    453.22396   -86.628396   -86.662511    200.61706    5279.0955      27.0546      59.6399 -0.00080229661  -0.01821284 -0.00012143293  0.030592902 
  286000    332.81788    441.87706    59.956789    59.908702    223.96741    5175.3732      27.0546      59.6399 0.00062102455 0.0089144165 0.00020570395 0.0046774837 
  287000    344.74298    457.73098    9.6388251    9.6379296    159.83638    5288.6546      27.0546      59.6399 -0.00034014885  0.025179398 -5.8280202e-05 -0.015347748 
  288000    335.41455    445.34541    126.73626    126.73585    339.42834    5329.4655      27.0546      59.6399 -0.00029329526 0.0069549825 -0.00073790339  0.013813754 
  289000    344.60061    457.51737    89.825308    89.767551    229.11359    5355.8137      27.0546      59.6399 -0.0006424664  0.015146308 0.00077784654 0.00049136174 
  290000    339.35844    450.58114    142.71139    142.70925     267.6244    5316.3356      27.0546      59.6399 -0.00086255701 -0.0064072755 -0.00024408365 -0.0091424472 
  291000    344.89278    457.93006    -155.0314   -155.03187    256.99423     5388.041      27.0546      59.6399 0.00028205777  0.034208834 0.0004494191  0.012962161 
  292000    340.95589    452.68542    255.60092     255.5601    147.57467    5220.0514      27.0546      59.6399 -0.00059380605 -0.00014367416 -0.00013986497 0.0015834698 
  293000    338.21454    449.06302   -86.357781   -86.358329    217.16986     5248.863      27.0546      59.6399 0.00028734805  0.011779135 -7.6936419e-05 -0.017290564 
  294000     341.7422    453.74171   -106.82083   -106.83328    168.83969    5253.0146      27.0546      59.6399 -0.00048623557 -0.017763155 0.0001630776 -0.001318233 
  295000    335.04237     444.7601    127.68549    127.47428    219.34697     5203.847      27.0546      59.6399 0.00048824827  0.026349669 -0.00029428567 0.0026441929 
  296000    344.68115    457.62965    79.434431    79.389032    214.00835    5341.9067      27.0546      59.6399 -0.0005044168  0.021667561 0.0003054212  0.022860386 
  297000    343.45529    456.02073   -375.03562   -375.03775    128.69731    5238.3583      27.0546      59.6399 0.00065163002  0.010175589 -0.00051471718  -0.01499808 
  298000    346.14456    459.59197   -82.725571   -82.726354    221.50546    5371.1752      27.0546      59.6399 -0.00035003636 -0.00078049909 -0.00015302721 -0.017027404 
  299000    342.69931    454.98488    108.77877    108.70241    169.50331    5267.9174      27.0546      59.6399 -0.00019310441  0.020422338 -0.00041006961 -0.0039301044 
  300000    346.61655    460.21845   -231.52077   -231.52202    294.78482    5451.4764      27.0546      59.6399 -2.9043553e-05 -0.0030832978 -0.00024468107   0.01203659 
  301000    342.29381     454.4112    493.30073    493.14276    238.72728    5331.1086      27.0546      59.6399 0.00020013148  0.010094031 0.00018066682  0.013245959 
  302000    342.79707    455.12285    45.872667    45.815208    257.58498    5357.4534      27.0546      59.6399 0.00085132529 -0.00034048588 -0.00033859866  0.011454739 
  303000    332.99558    442.11662    174.28448    174.24477    155.15017    5109.1996      27.0546      59.6399 -0.00025075604 -0.018368625 0.00025162224   0.02215617 
  304000    342.05831    454.13054    106.24061    106.15672    130.05187    5218.9296      27.0546      59.6399 0.00050836519  0.001506102 -0.00037586941 -0.0011661095 
  305000    336.98402    447.39641   -118.68914   -118.76553    269.94079    5283.3272      27.0546      59.6399 -0.00052464751 0.0029892077 3.7359449e-05 -0.0098212825 
  306000    343.05484    455.24636   -47.210837   -47.774262    203.56497    5307.2683      27.0546      59.6399 4.8942652e-05  0.014724119 -0.00043828828  0.012426001 
  307000    334.59005    444.24418    459.81594    459.80049    137.51904    5115.2899      27.0546      59.6399 0.0005271204  0.018464615 -0.00060712686 0.0075888896 
  308000     338.9596    450.01661    369.77738    369.69434    129.12229    5171.8999      27.0546      59.6399 0.00094565914 -0.0084203479 -0.00045860589 0.0080094601 
  309000    339.85657    451.20281     392.5889     392.4949    236.91209     5293.034      27.0546      59.6399 -0.00012130322  0.011525757 -0.00027954997 0.0042409299 
  310000    343.40943    455.96038    9.7716685    9.7708149     144.6125    5253.5912      27.0546      59.6399 -0.0004890964  0.030227233 4.3155071e-07 -0.017095419 
  311000    334.54228    444.16373   -152.87938   -152.93415    202.92221    5179.9822      27.0546      59.6399 -0.00057275192 -0.027722291 0.00017750063 -0.012263507 
  312000    336.52306    446.81595     17.78406    17.780727    148.37829    5154.9068      27.0546      59.6399 3.4015797e-05 -0.0029182799 -0.00057167824 -0.0096201882 
  313000    345.23628    458.38631    40.207202    40.207109    175.60563    5311.7628      27.0546      59.6399 0.00018589702 -0.0067984015 -6.8995463e-06  0.018211351 
  314000    337.70802    448.32832    254.38295     254.2386    174.28859    5198.4461      27.0546      59.6399 0.00084072744  0.022289076 -0.00036694262 0.0019013646 
  315000    340.79306     452.4476    70.893389    70.802552    156.21298    5226.2673      27.0546      59.6399 -0.0005627837  0.031968994 0.00022357678 -0.012323938 
  316000    336.74888    447.11458   -39.618128   -39.624251    274.49128    5284.3794      27.0546      59.6399 0.00061997555 0.0020959009 -0.00023888078 -0.00048547817 
  317000    343.11446    455.50969   -63.457339   -63.594765    281.01194    5385.6022      27.0546      59.6399 -0.00025886188 0.00019551502 -4.7709765e-05   0.01299567 
  318000    339.94477    451.36013    41.767674    41.766688     197.4816    5254.9157      27.0546      59.6399 0.00024330265 -0.019283974 0.00059643923 0.0053915171 
  319000    347.44961      461.301   -313.07036   -313.12607    236.91619    5406.0015      27.0546      59.6399 -0.00031467606  -0.01796524 0.00019414193 -0.013272368 
  320000    346.17046     459.6222   -78.285809   -78.296224    201.43018    5351.4853      27.0546      59.6399 -0.00047994635 -0.0072100903 -0.00011731238 -0.018895248 
  321000    343.74013    456.38167   -498.56763   -498.60967    181.53397    5295.4326      27.0546      59.6399 -9.1457563e-05  0.017086896 -0.00033594951 0.0020035506 
  322000    343.06623    455.49541   -89.990217   -90.012546    143.68602    5247.5588      27.0546      59.6399 -0.00046877764 0.0016446225 3.4320397e-05 -0.027251711 
  323000    339.29431    450.49213    254.71863    254.70758    253.71612    5301.4731      27.0546      59.6399 0.0011730451 -0.022124651 0.00060940511  0.049272545 
  324000    342.16622    454.26442   -67.007156   -67.112783    287.95296    5378.4361      27.0546      59.6399 0.00087696859  0.020490579 -0.00032571208 -0.025431998 
  325000    333.72453    443.10158   -180.07696   -180.07714    252.98963    5217.8839      27.0546      59.6399 -0.00021438338 -0.0095457891 0.00037188922 -0.0081036095 
  326000    342.06888    454.16932   -507.12924   -507.15588    200.86635    5289.9013      27.0546      59.6399 -0.00033841122 0.0057043711 0.00028870118 0.0030670192 
  327000    342.22802    454.29885    -69.60341   -69.819182    193.87303    5285.2755      27.0546      59.6399 -0.00016406658  0.028433218 -8.8306698e-05 -0.0086015364 
  328000    348.61757    462.80801      344.552    344.39509    211.93144    5398.3928      27.0546      59.6399 0.00013527847  0.021292243 -0.00020745455   0.00976581 
  329000     345.5036    458.71084   -172.56266   -172.63306    124.08607    5264.2202      27.0546      59.6399 -0.00030918818  0.019814726 -8.0405776e-05 -0.0050005778 
  330000    342.38953    454.54231    8.6488783    8.5002083    93.118374    5186.9237      27.0546      59.6399 -0.00091116807 0.0071738159 -0.00013331578  0.016342898 
  331000    338.42471    449.20926   -94.366455   -94.674186    165.57648    5200.3963      27.0546      59.6399 0.00042105785 -0.0068657212 9.1758062e-05  -0.03806521 
  332000    339.71892    450.91679    30.227946     29.89511    312.49007    5366.5642      27.0546      59.6399 -0.0010386586  0.023072117 -0.00018306699 -0.0078549422 
  333000    339.87907    451.22686   -35.519031   -35.626505    287.93309    5344.3897      27.0546      59.6399 0.00031784458 -0.0038513411 0.00030626057 -0.043238415 
  334000    342.30108    454.48802   -308.38934   -308.39195    182.98623    5275.4758      27.0546      59.6399 -0.00019709144   0.03268593 -0.00041067388 -0.0026780239 
  335000    332.90825    442.01642    -161.2457   -161.24899    263.06215    5215.8125      27.0546      59.6399 -0.0013229811 0.0081723199 -2.4390514e-05 -0.019729659 
  336000    334.57665    444.16193    164.60417    164.43966    241.48461     5219.056      27.0546      59.6399 0.00063754469  0.046527334 -0.00031582481  0.011211373 
  337000    338.52807    449.47675    143.81986     143.8134    186.87781    5223.2354      27.0546      59.6399 0.00017006293  -0.01549208 -0.00031887369 -0.026728402 
  338000    341.26691    453.05359    351.10347    350.95906    264.45593    5341.5598      27.0546      59.6399 -2.0336658e-05 -0.0095323488 -0.00015589373 0.0020473833 
  339000    337.12581    447.59594    86.040277    85.989957    240.42365    5255.9195      27.0546      59.6399 0.00022771929  0.036627391 -0.00084628052  0.025851598 
  340000    342.26443    454.39894    13.084917    12.988821    467.02525    5558.9695      27.0546      59.6399 -0.0006416691  0.027881291 0.00066957925 0.00043355471 
  341000    336.02861    446.13868    344.90635    344.85497    276.52413    5275.6967      27.0546      59.6399 -0.00018168226  0.024583005 -0.00047886936 5.0266057e-05 
  342000    344.73942      457.616     72.16904    71.913124    192.82755    5321.5928      27.0546      59.6399 0.00012556794  0.012243335 0.00018809926 -0.0022734527 
  343000    334.96876    444.65493    110.71158    110.48317    184.75516      5168.16      27.0546      59.6399 -0.00043279488 -0.022259796 0.00048199275  0.010226397 
  344000    343.90932     456.6047    30.843012    30.797246    239.63526    5356.0509      27.0546      59.6399 0.00040559668   0.01007182 7.4572779e-05 0.0031825526 
  345000    335.19189    445.03889   -159.37035   -159.39591    321.38448     5308.109      27.0546      59.6399 -0.00045802228  0.022313333 -6.4675287e-05  -0.02568657 
  346000    340.54242    452.15076    83.234664    83.226951    281.62342     5347.949      27.0546      59.6399 0.00046024052 -0.0075644607 0.00037900509 -0.034869156 
  347000    345.12416     458.2334    140.17102    140.16161    95.274275    5229.7633      27.0546      59.6399 0.00032912166 -0.0089000436 -0.00021985527 -0.039302023 
  348000    340.93885    452.67662    35.879436    35.870582    120.08282    5192.3061      27.0546      59.6399 0.00019380871 -0.013297641 0.00084935351 -0.0021763764 
  349000      337.562    448.19657    17.586866    17.586223    190.61298    5212.5981      27.0546      59.6399 -0.00014810058 -0.007718998 -0.00063348694 -0.020505058 
  350000    339.51076    450.76767   -114.97204    -115.0105    193.13054    5244.1077      27.0546      59.6399 0.00043010552 0.0031337433 -0.00015672151 -0.014237044 
  351000    341.74315    453.59934   -312.15412   -312.49878    199.29841    5283.4874      27.0546      59.6399 -0.00050105276 0.0053192136 0.00033797232 -0.020768697 
  352000    336.61226    446.92204   -148.04088   -148.07281    239.24398    5247.0997      27.0546      59.6399 -0.00013616847 0.0072338489 0.00051742895 -0.0087838034 
  353000    342.56747    454.83825   -74.571515   -74.582133    208.02626    5304.4789      27.0546      59.6399 6.560228e-08 -0.028892481 -0.0010421237  0.012846235 
  354000    344.78302    457.76747   -137.96177   -138.00124    154.55974    5283.9736      27.0546      59.6399 0.00050221427 -0.00073655153 9.2532142e-05  0.028487461 
  355000    340.06125    451.48644    63.732927     63.66637     192.0546    5251.2216      27.0546      59.6399 0.00025109293 0.0019361588 -0.00010676368 0.0085730761 
  356000    336.71151    447.05082   -154.20209   -154.24092    277.04513    5286.3773      27.0546      59.6399 0.00035587154 0.0077589477 0.00050613403  0.007223132 
  357000    334.19037    443.66379   -9.4472443    -9.577669    229.55038    5201.3751      27.0546      59.6399 -0.00061053247 -0.018999817 0.00014572385 0.0018761229 
  358000     344.2792    457.08577    55.824446    55.755484    115.16435    5237.0828      27.0546      59.6399 -0.0011522726 0.0029530948 0.00013828609 -0.013006491 
  359000    337.78998    448.48049    65.606422     65.56235    160.23276    5185.6096      27.0546      59.6399 -0.00012836219  0.022696809 0.00019754899 -0.028522798 
  360000    337.05662    447.52339    137.59416    137.58851     103.4103    5117.8767      27.0546      59.6399 -0.00078764226  0.028794635 1.1274608e-05  0.048317113 
  361000    335.96156    446.04304   -162.39444    -162.4611    186.19477    5184.3698      27.0546      59.6399 0.0003978362 0.00073013285 -0.00033349618  0.011822721 
  362000    338.00714    448.74332   -154.91706   -155.02013    163.98984    5192.5974      27.0546      59.6399 -0.00043763814  0.013658735 -0.00055257676  0.034620334 
  363000    338.17611    449.01107    -59.57565   -59.578321     218.2545    5249.3759      27.0546      59.6399 0.00054966482 0.0026769875 0.00059702893  0.008506453 
  364000    338.60843    449.58012     220.8058    220.79162    255.66509    5293.2183      27.0546      59.6399 0.00014376618 -0.033747789 -0.00023866242 0.0050436733 
  365000    342.79386    455.14343   -61.499649   -61.499661    180.48928      5280.31      27.0546      59.6399 0.00063517527 -0.012530306 0.00010350496 0.0037833847 
  366000    339.10652    450.24567    156.55561     156.5512     146.3443    5191.3076      27.0546      59.6399 -0.00015449849 -0.00054995326 0.00017011755 -0.0023562203 
  367000    342.83799    455.19506    208.63031     208.6142     209.3744    5309.8516      27.0546      59.6399 0.00029868063 0.0007701641 -1.8501673e-05    0.0142707 
  368000    333.82565    443.22991   -102.89931   -102.91322    141.47434     5107.873      27.0546      59.6399 0.00037108129  0.037821621 -0.00063915011 -0.0082539969 
  369000    347.98219    462.03199   -115.04442   -115.04494    97.260772    5274.2693      27.0546      59.6399 0.00039651155 -0.010844215 -0.00030181011 0.0073442487 
  370000    346.22414    459.69597    89.416959    89.412337    129.44875    5280.3024      27.0546      59.6399 -0.00039322747 0.00074776477 0.00093986172 0.0096033202 
  371000    332.84515    441.93033   -81.769948   -81.778577    177.78556    5129.5971      27.0546      59.6399 -0.00085110693  0.051392534 0.00044155819  0.018311691 
  372000    344.57606    457.50963    -304.0592   -304.05945    121.35797    5247.6929      27.0546      59.6399 0.00039473452 -0.018170791 -6.4806164e-06 0.0037250408 
  373000    327.64089    434.98515   -111.38524   -111.47538    146.04025    5020.4268      27.0546      59.6399 -0.00015904707 -0.013091512 5.2561962e-05  0.012542244 
  374000    344.71471    457.63731   -81.000458   -81.131195    198.78834    5327.1859      27.0546      59.6399 -0.00019516543 0.0024175749 0.0012088452  0.031195629 
  375000    339.84965    451.19741   -341.38498   -341.47023    173.26837    5229.2874      27.0546      59.6399 -0.00054695755 0.0057098449 -0.00010197593 -0.015370801 
  376000     344.9915    458.04413   -230.94927   -230.98907    164.43321    5296.9486      27.0546      59.6399 0.0011065139 0.0071637476 9.0604252e-05 -0.0071961457 
  377000    346.34855     459.7977   -1.7745288   -1.9259452    147.11476    5299.8194      27.0546      59.6399 -0.0015909883  0.020988631 0.00057266019  0.054442409 
  378000    337.93258    448.68823   -148.29414   -148.29565    174.53181    5202.0302      27.0546      59.6399 0.00039041944  -0.01462905 -0.00015091901 -0.018170505 
  379000    341.78434    453.79518   -280.89054   -280.90873    248.40228    5333.2041      27.0546      59.6399 0.00072751537  0.015368981 -6.8975537e-05 -0.00038977653 
  380000    341.08473    452.72728   -41.920015   -42.259711    258.71074    5333.1044      27.0546      59.6399 0.00016591309 0.0029481579 0.00010974942 0.0047884535 
  381000     339.7042    450.88996    148.68587    148.33618     178.1264    5231.9815      27.0546      59.6399 0.00038146443  0.027935349 0.00028590229 -0.020992358 
  382000    346.04532    459.45203    15.384569    15.364872     168.5971    5316.7905      27.0546      59.6399 -0.00094348303 -0.0044530603 -0.00010271121 -0.00040531816 
  383000    337.92455    448.64416   -132.20629   -132.28509    255.08167    5282.4606      27.0546      59.6399 0.00014013365 -0.0056427648 -0.00044327666 -0.0048701725 
  384000     337.4899    448.09752    -150.9343   -150.94261    190.40535    5211.3178      27.0546      59.6399 -0.00016171778 -0.0045374507 8.8873725e-05  -0.01432743 
  385000    346.24422    459.62858   -61.395161   -61.617332     280.4943    5431.6467      27.0546      59.6399 -0.00012693808 -0.030568091 0.00025653978 -0.014698724 
  386000    340.27254    451.71259    39.167119    38.974746    290.84449     5353.155      27.0546      59.6399 0.00033639556 -0.005108672 -0.00034040012  0.015607018 
  387000    342.25457    454.39172    -199.2069   -199.28939    174.00264    5265.8001      27.0546      59.6399 -0.00053828213 -0.010325353 0.00019426198  -0.01138659 
  388000    335.72538    445.74125    53.231501    53.192113    312.66884    5307.3301      27.0546      59.6399 -0.00049154361  0.021633386 0.00060912392  -0.02721838 
  389000    342.50659     454.7616   -359.85247   -359.85342    259.51012     5355.057      27.0546      59.6399 -0.0003000492 -0.017797896 0.0010745076  0.031264965 
  390000    338.42237    449.33799   -53.580984   -53.583776    234.67522    5269.4603      27.0546      59.6399 -1.4811433e-05  0.010020827 -4.2841056e-05 -0.0020230612 
  391000    333.89183    443.30996    310.88873    310.85675    288.61915    5256.0023      27.0546      59.6399 0.00048996746 -0.0058169679 0.00052008449 -0.019713104 
  392000    335.42127    445.24486   -85.129655    -85.38325    212.90442    5203.0414      27.0546      59.6399 0.00032212173 -0.015353136 0.00011094005 -0.030103835 
  393000    334.83527    444.49865     117.9653    117.78538    293.24578    5274.6647      27.0546      59.6399 -0.00052446099  0.015262783 -5.1937939e-05 -0.011064704 
  394000    339.60585     450.8341   -59.599072   -59.775946    179.71432    5232.1063      27.0546      59.6399 0.00055390336  0.025142155 0.00040425001 -0.011379014 
  395000    339.82843     451.2027   -179.09883   -179.10669    248.86213    5304.5655      27.0546      59.6399 2.934976e-05 0.0024423126 7.4280158e-05  0.012425216 
  396000     342.3441    454.54612    60.243396    60.243077    365.13192    5458.2614      27.0546      59.6399 -0.00037634871  0.027492806 0.00058009873 -0.030988985 
  397000    340.19446    451.66825   -44.899387   -44.954516    254.88389    5316.0327      27.0546      59.6399 -0.00020852579 -0.013339773 0.00013472425 -0.017456372 
  398000    345.05597    458.14046   -232.11187   -232.12686    292.63081    5426.1055      27.0546      59.6399 0.00034748977 -0.018145712 -0.00040936823 -0.013867017 
  399000    343.87221     456.5629    165.35308    165.32461    212.09189    5327.9554      27.0546      59.6399 0.00044050213 0.0068132241 -7.0781009e-05 0.0058569571 
  400000    338.12394    448.93835    312.44856    312.43791    155.09173     5185.437      27.0546      59.6399 3.062087e-05 -0.008483618 0.00060379164  0.018746248 
  401000    336.73877    447.09377    240.27969    240.25648    169.40648    5179.1443      27.0546      59.6399 0.00086715355 -0.0042193387 -0.0005265256  0.014538573 
  402000    341.96345    454.04061   -6.9494137   -6.9499624    125.13673    5212.6031      27.0546      59.6399 -0.00013660277  0.025327846 0.00024639947  0.010127379 
  403000     337.5367    448.02078    287.22863    286.89908    122.23956    5143.8483      27.0546      59.6399 0.00015538473    0.0165025 -9.1070093e-05 -0.0028358746 
  404000    346.25086    459.73345    307.71574    307.71574    215.47244    5366.7237      27.0546      59.6399 0.00024325887  0.013879469 -0.0011093008   0.03428962 
  405000    334.08961    443.56457   -402.26012   -402.31057    201.13753    5171.4631      27.0546      59.6399 0.00018783524 -0.028414997 -0.00021380376 0.00085845198 
  406000    337.60211    448.22581    17.919445    17.863265    195.92898    5218.5108      27.0546      59.6399 6.2485826e-05 -0.012179265 0.00062363044  0.018415613 
  407000    335.32388    445.22511    85.102832    85.102646    239.77421    5228.4623      27.0546      59.6399 -0.00021868688 0.0013003371 0.00037928418 -0.013026253 
  408000    344.20669    456.97418   -280.37194   -280.47634    285.02298    5405.8627      27.0546      59.6399 -0.00066103438  0.015769079 -0.00039972078  -0.01218959 
  409000    336.83705    447.20083    31.587985    31.510556    148.29974    5159.4997      27.0546      59.6399 -0.00033795304  0.011342466 9.7337653e-05 -0.016259836 
  410000    338.40931    449.31706   -71.589577   -71.600694    257.52076    5292.1116      27.0546      59.6399 -0.000484874  0.010175074 5.0325238e-06 -0.010784541 
  411000    333.33817    442.58708   -18.997578   -19.001235    240.82628    5199.9725      27.0546      59.6399 0.00030889817 -0.0053104785 1.3099388e-05 0.0017709981 
  412000    338.95592    450.04711   -217.42063    -217.4218    174.34631    5217.0691      27.0546      59.6399 -0.00065990497   0.01987947 0.00012362441   0.01928752 
  413000    334.60907    444.26381   -133.86118    -133.8896    199.98967    5178.0434      27.0546      59.6399 0.0002099053 -0.0033654838 -0.00038677858 -0.028807768 
  414000    344.24502    457.06968      222.712     222.7108    209.75848    5331.1683      27.0546      59.6399 0.0002274412 -0.019598058 -6.5024468e-05 -0.019900667 
  415000    343.43909    455.99663    487.13245    487.12433     187.1449    5296.5649      27.0546      59.6399 -0.00012093758  0.010870151 0.00018357401 0.0020885556 
  416000    331.56998    440.23956    495.15195    495.14872    238.95293    5171.7934      27.0546      59.6399 -0.00032453438 -0.022342598 -7.2193947e-05 0.0053079218 
  417000    352.26332    467.71358    249.64599    249.63929    164.63531    5405.3353      27.0546      59.6399 0.00014327528 -0.036935845 -0.00057230942 -0.013437698 
  418000    349.57611    464.14563    75.895893    75.889151    156.42188    5357.1437      27.0546      59.6399 0.00026392539 -0.025229063 -0.00027822627 -0.0084480817 
  419000    342.32488    454.44013     336.4722    336.28574    112.33997    5205.1835      27.0546      59.6399 -0.00069835577 -0.019283046 -0.00010146021   0.04003431 
  420000     339.3118     450.5186    30.591295    30.587754    194.23952    5242.2568      27.0546      59.6399 0.00073068504 -0.0013775973 -0.00031110498 0.0084798423 
  421000    332.52841    441.51084    468.55794    468.55174    168.90418    5116.0035      27.0546      59.6399 -0.00074173968 0.0033385162 0.00016256034 -0.021550473 
  422000    337.88095    448.61198   -70.658279    -70.67758    193.39958    5220.1298      27.0546      59.6399 -0.00054234764 -0.0087208855 -0.00031042517  0.015860203 
  423000     333.0152    442.14722   -161.40404   -161.43325     222.1142    5176.4557      27.0546      59.6399 -5.6461192e-05  0.010416256 9.1702646e-05  0.011882625 
  424000    343.71341    456.36048   -248.77665   -248.78561    137.36831    5250.8693      27.0546      59.6399 -0.00045828102 0.0093586531 5.6703781e-05 -0.010409645 
  425000    336.44694    446.71631    -326.8664   -326.86645      151.917    5157.3132      27.0546      59.6399 -0.00029049941  0.023746065 -0.00026424168 -0.029199195 
  426000     346.4793    460.03476    158.64907    158.64444    168.60857    5323.2584      27.0546      59.6399 0.00056631668 -0.0011492218 0.00040079695 0.0097389576 
  427000    339.31259    450.52007    -5.865517    -5.868092    17.492881    5065.5219      27.0546      59.6399 -0.00017625231 0.0006259901 0.00013811169 0.0087809064 
  428000    336.65478    446.99186   -37.130497   -37.131477    149.84552    5158.3337      27.0546      59.6399 -0.00040507494 0.0027537183 -0.00027422205   0.01677807 
  429000    340.76274    452.22995    15.939599    15.438464    188.91704    5258.5202      27.0546      59.6399 -0.00027053206 -0.0072436589 -5.1355608e-05   0.01764216 
  430000    349.08842    463.48691     130.6391    130.60647    215.70355    5409.1698      27.0546      59.6399 -0.00026027099 -0.0031200753 0.00066394959  0.026172615 
  431000    337.12683    447.59594   -208.37118   -208.42464    167.86284    5183.3738      27.0546      59.6399 4.5484959e-05  0.019885364 0.00059421778  0.023892271 
  432000    337.93481    448.64792   -444.12121   -444.22281    285.86822    5313.3998      27.0546      59.6399 0.00091144541  0.009617787 0.00044546118  0.033628579 
  433000    339.34878    450.56916     28.00981    28.009616    136.32437    5184.8919      27.0546      59.6399 -0.00079245632 0.0034742549 9.0409583e-05  0.018646964 
  434000    331.43113    440.02438    117.43084    117.35631    138.50045    5069.2752      27.0546      59.6399 -2.877795e-06 0.0081241056 0.00079215234 -0.024061073 
  435000    338.21786    449.04059   -130.91025   -130.97285     223.6789    5255.4213      27.0546      59.6399 0.0003184953  0.015358178 0.00042861294  0.043254706 
  436000    345.99443    459.38975    232.33999    232.33252    175.19678    5322.6331      27.0546      59.6399 -0.00047056639 -0.0044323936 -7.6193722e-05 -0.0061523387 
  437000    339.42358    450.59159   -42.646415   -42.824432    67.016049    5116.6963      27.0546      59.6399 -0.00046720871   0.01631184 -2.2909366e-05 -0.012746396 
  438000    337.48305    448.08772    173.81917    173.80922    207.89383    5228.7045      27.0546      59.6399 0.00019179349  -0.01176004 -0.00046768584 -0.021368313 
  439000    337.28395    447.80559    26.368799    26.317737    241.52261    5259.3712      27.0546      59.6399 0.00011916986 -0.0042332446 0.0002207066 -0.038072422 
  440000    343.28575    455.79113    94.712291    94.699784    196.88855    5304.0272      27.0546      59.6399 -0.00019749661 -0.022477451 0.00018569968  0.016657326 
  441000    334.35862    443.91482   -279.15403   -279.22054    218.26904    5192.5969      27.0546      59.6399 -0.00015519989 -0.0035968286 0.00031683433 -0.019030606 
  442000    341.03405    452.80257    220.13569    220.12581    218.57418    5292.2137      27.0546      59.6399 0.00071409598 -0.0095851512 0.0010801565 -0.0044523413 
  443000    336.35757    446.59315    -461.2632   -461.27366    230.07819    5234.1447      27.0546      59.6399 0.00070621339  0.003643397 5.8432461e-05 -0.025682409 
  444000    337.58554     448.2274   -156.22209   -156.22373    295.53039    5317.8658      27.0546      59.6399 -0.00048047804  0.033310369 -0.00064899864 -0.0070127747 
  445000    335.83156    445.89612    28.924637    28.917364    282.28018    5278.5212      27.0546      59.6399 0.00021974119 -0.023281901 -0.0010308902 -0.0091557426 
  446000     343.8913     456.5014   -139.93054    -140.1599    132.24683    5248.3944      27.0546      59.6399 0.00017025817 -0.010674438 0.00022438535  0.010162826 
  447000    341.36436    453.19218   -101.22991   -101.35304    196.36709    5274.9208      27.0546      59.6399 -0.00061655357  -0.01989013 0.00022360888 -0.016983254 
  448000    339.45446    450.70766    99.996465     99.99209    315.49312    5365.6328      27.0546      59.6399 0.00023884932   0.00275479 0.00040769982  0.021504706 
  449000    343.08371    455.47484   -399.66667   -399.79027    342.57088    5446.7037      27.0546      59.6399 -3.1230444e-05 -0.0064445922 -0.00095572485 0.0021027514 
  450000    342.10904    454.23184   -40.736511   -40.741891    241.80097    5331.4335      27.0546      59.6399 -0.00059073988  0.023522328 0.00019464519 -0.0029530198 
  451000    333.92673    443.36768   -533.01841   -533.02406    245.17364     5213.076      27.0546      59.6399 -0.00013086776 -0.021660814 9.9755184e-05 -0.028119951 
  452000    327.95915     435.3242   -10.842922   -11.126245    326.47243    5205.5938      27.0546      59.6399 4.4715075e-05  0.023293622 -0.00023616752 -0.009267051 
  453000    337.79856     448.4933    -4.867198    -4.907986    280.06828    5305.5727      27.0546      59.6399 -0.0013303524  0.026170801 0.0001275041 -0.017648076 
  454000    341.12536    452.92272   -6.6362356   -6.6486272    128.42291    5203.4209      27.0546      59.6399 0.00031951232 -0.022277696 0.00091151971 0.0074057184 
  455000    334.90236    444.65683    -165.4189     -165.439    198.06839    5180.4855      27.0546      59.6399 0.00045349677 -0.013294418 -0.00060709778 -0.024559896 
  456000    336.97309    447.41275    151.38034    151.37533     297.1164    5310.3402      27.0546      59.6399 -0.00025405697 0.0061940778 -6.8704323e-05 -0.0075196536 
  457000    339.86246    451.23554    263.30246    263.26606     227.7633    5283.9729      27.0546      59.6399 -0.0002242113 -0.024978557 0.00013557403 0.0061686458 
  458000    336.38607    446.63115    163.83294    163.82287    278.67734    5283.1679      27.0546      59.6399 0.00036196519 0.0048783829 -0.00015857139  0.019105773 
  459000    354.93376    471.23696    31.273236    31.214993    230.82096    5511.2497      27.0546      59.6399 -0.00058075711 0.0021237957 0.00025835494  0.018051022 
  460000    344.72653    457.69732    90.820259    90.792009    147.72192    5276.2954      27.0546      59.6399 0.00052644212  0.021389088 0.00062808893 -0.0075485981 
  461000      335.382    445.29772   -130.29423   -130.30496     230.2479    5219.8006      27.0546      59.6399 -0.00023042742 -0.022213491 -0.00016377157 0.0095932803 
  462000    334.84227    444.51042    126.53824    126.36405    206.94433    5188.4674      27.0546      59.6399 -0.0009732268  0.035453265 0.00043870601 0.00099962388 
  463000    344.95198    457.87628     39.96989    39.663196    153.27694    5285.2045      27.0546      59.6399 -0.00051700904 -0.0037467554 8.1685257e-05 0.0092932729 
  464000     342.3277    454.48903   -217.89993   -217.98193    220.19522    5313.0807      27.0546      59.6399 2.1048274e-05  0.010121289 0.00017834775  0.010745255 
  465000    338.59838    449.52441   -109.34966   -109.46179    277.18916    5314.5927      27.0546      59.6399 0.00037725514 -0.012362238 0.00025667044 -0.0032592493 
  466000    343.96154    456.64408    22.038421    21.923385     167.9246    5285.1171      27.0546      59.6399 -0.00052691689 -0.0012499153 -0.00030994086  -0.01751984 
  467000    349.19531    463.58464    144.82925    144.69443    142.71944    5337.7759      27.0546      59.6399 0.00074554694 0.0011894368 0.00063729143  0.015786524 
  468000    333.01499    442.14182   -96.474706   -96.515744    55.616455    5009.9547      27.0546      59.6399 -0.00036265266  0.022789667 -0.00030916832 -0.00061434513 
  469000    343.67297     456.3106   -209.87503   -209.87516    141.89164     5254.791      27.0546      59.6399 -0.00013600587   0.02376274 0.00061138106 -0.0042935607 
  470000    336.37746    446.61098    213.72851    213.69823    235.96586    5240.3283      27.0546      59.6399 0.00033302616 -0.0025736804 0.00062401683  0.035704535 
  471000      341.721     453.5996     455.3813    455.10525    170.51745    5254.3769      27.0546      59.6399 0.00014828898 -0.015394368 1.2981931e-05 -0.035915932 
  472000    334.67282    444.33806   -236.71051   -236.76298    85.906714    5064.9088      27.0546      59.6399 -0.00029998553 0.0024132715 -0.00045991077 -0.015962049 
  473000    339.04445    450.16432   -160.56787   -160.56984    61.529407    5105.5693      27.0546      59.6399 0.00047601361 0.0054554591 -6.6332806e-05 -0.030881035 
  474000    343.71039    456.26264   -448.49646   -448.72246    142.23112    5255.6872      27.0546      59.6399 -0.00026978979  0.018024619 0.00067462804 -0.0091211826 
  475000    339.12784    450.27564   -220.90888   -220.90946     148.2886    5193.5692      27.0546      59.6399 -0.00022603708 0.0093303906 0.0001640127  0.019180334 
  476000    340.30522    451.83183    172.62683    172.60989    5.5170572    5068.3137      27.0546      59.6399 -0.00024305053  0.027038855 -0.00013833893  0.031837253 
  477000     340.9024    452.62871    76.869407    76.861674     101.0547    5172.7357      27.0546      59.6399 9.3416211e-05 -0.023067892 -0.00053201052 0.0053046996 
  478000    340.97026    452.71762   -134.65688   -134.66735    222.70382    5295.3943      27.0546      59.6399 0.00050850649 -0.010075842 0.0011418078 -0.010776282 
  479000    338.73518    449.74717    152.30969    152.29268    202.92108    5242.3598      27.0546      59.6399 0.00032623108 -0.002579044 8.0051794e-05 0.0088983566 
  480000    340.44248    452.01865   -19.085115   -19.091454    228.72549    5293.5642      27.0546      59.6399 0.00058338288 0.00012677399 0.00021506986 -0.024347728 
  481000    347.75583    461.72977    184.96628    184.96188    247.49205    5421.1331      27.0546      59.6399 -0.00086057213  0.058552897 -0.00014913716 -0.008153432 
  482000    336.51911    446.80729    103.64254    103.63131    229.82438    5236.2942      27.0546      59.6399 -0.00039923982 -0.011725691 -0.00063240661  0.048060298 
  483000    342.13098    454.22049    234.21886    234.11985    264.01801     5353.977      27.0546      59.6399 0.00054980529 0.0087047972 0.00058874453  0.018725368 
  484000    338.84339    449.89526    64.521951    64.515134   -23.671845    5017.3768      27.0546      59.6399 0.00037170532 0.0068639783 -6.5606069e-05 -0.026887133 
  485000    337.98661    448.74932   -30.010881   -30.037021    167.17568    5195.4779      27.0546      59.6399 0.00043146286 -0.008175766 -0.0002392868 0.0082199391 
  486000     345.1798    458.27434   -196.33137     -196.417    62.922517    5198.2394      27.0546      59.6399 5.1866687e-06 0.0012746595 2.478672e-05 -0.016280496 
  487000    338.64844    449.51594    247.46826     247.1828    81.249374    5119.3977      27.0546      59.6399 0.00024540139  0.006258257 -0.00072515503  0.041703701 
  488000    346.28653    459.77085   -122.66416   -122.68719    90.166526    5241.9484      27.0546      59.6399 -5.2331313e-05 0.0089952046 0.0005539545 -0.0074667559 
  489000     343.5858    456.19301    131.31129    131.30686    171.37308    5282.9756      27.0546      59.6399 0.00039819218 0.0050355262 0.00047713806 -0.012082021 
  490000    340.45121    452.03293   -127.22677   -127.22691    267.84142      5332.81      27.0546      59.6399 0.0001033705 0.00068580355 -0.00035153737 0.0014525336 
  491000    341.28121    453.10443    168.23903    168.16828    248.75829    5326.0749      27.0546      59.6399 -0.00049143993 -0.017116046 -0.00072147704  0.021210762 
  492000    341.45376    453.36207    13.119139    13.114406    326.71534     5406.599      27.0546      59.6399 -0.0007371612  0.033153675 -0.00033507597 -0.0023764263 
  493000    344.21961    456.98888    233.03857    232.92849     228.4841     5349.516      27.0546      59.6399 9.0834753e-05  0.017216569 0.0011747614   0.02288091 
  494000    335.12169     444.9317   -218.23823   -218.29614    272.19856    5257.8787      27.0546      59.6399 0.00021239462 -0.015647119 -0.00013938441 -0.00036392878 
  495000    334.72955    444.43097    24.007642    23.995839    107.21776     5087.064      27.0546      59.6399 0.00090312636 -0.00027055947 2.9205322e-05 -0.012039514 
  496000     346.2257     459.6679    156.43473    156.36038    184.28341    5335.1603      27.0546      59.6399 0.00055563945  0.030950608 -0.0002768876 -0.019403804 
  497000    342.13585    454.26451   -217.92976   -217.94192    125.14098    5215.1724      27.0546      59.6399 5.9552489e-05 -0.0055788908 3.203248e-05  0.023554914 
  498000    344.82186    457.73659    320.23108     320.0009    139.95774    5269.9494      27.0546      59.6399 2.3416586e-05 -0.021662777 0.00018526756   0.01313365 
  499000    344.33145    457.16398   -217.35845   -217.40696     114.1324    5236.8281      27.0546      59.6399 -0.00033823759 -0.0080381944 4.5550832e-05  0.021883989 
  500000    338.66825    449.64145    197.85123    197.79523    159.66735    5198.1104      27.0546      59.6399 -0.0002331515 -0.025774529 0.00040814305 -0.023452605 
  501000    340.38345    451.90429     124.1436    124.05403    73.044033    5137.0045      27.0546      59.6399 0.00059220185  -0.01802917 -0.0003474445 -0.008820289 
  502000    333.87992    443.30792    183.52539    183.52527    192.90376    5160.1097      27.0546      59.6399 -0.00090018317  0.052954148 0.00070064901 0.0032315022 
  503000    340.46733    452.03883   -393.61019   -393.64617    66.690521    5131.8989      27.0546      59.6399 0.00037809297  0.023291206 0.00077168325 -0.0033700099 
  504000    346.82197    460.46534    237.38473    237.32366    227.53871    5387.2865      27.0546      59.6399 0.00023948568 -0.0028349465 -0.00056604495  0.015780073 
  505000    343.10996    455.54905    3.8998659    3.8672993    118.03396    5222.5573      27.0546      59.6399 0.00026693979 -0.027948571 -0.00023775967  0.018898984 
  506000    338.59905    449.52575   -290.19687   -290.30795    195.65443    5233.0679      27.0546      59.6399 -0.00072280752   0.03560234 0.0010803619 -0.001971945 
  507000    339.71319    451.04403   -217.37649   -217.39741    145.65528    5199.6441      27.0546      59.6399 7.1229553e-05 -0.0080872326 -4.6000784e-05 -0.011662936 
  508000    336.81116    447.09462   -177.24234   -177.48589    126.79916    5137.6139      27.0546      59.6399 -0.00028858698 -0.013327473 -0.00017058237 0.0050810024 
  509000    331.83974    440.53257   -278.26563    -278.4196    299.35194    5236.2058      27.0546      59.6399 8.8774043e-05  0.018930169 0.00012267299    0.0245803 
  510000    343.81486    456.39459   -323.18832   -323.42994    215.82751    5330.8378      27.0546      59.6399 -0.00041631645 -0.011579019 0.00034417175 0.00092034739 
  511000    344.78689    457.76912    77.294784    77.247241     137.0779    5266.5494      27.0546      59.6399 0.00046398112 0.0017504383 -0.00071313999 0.0009335257 
  512000    338.85778    449.90525    90.329034    90.301134    218.93936    5260.2021      27.0546      59.6399 -0.00012665807 0.00052669609 0.00037165856 -0.0061363519 
  513000    341.23642    453.02707   -194.98747   -195.09959     239.4823    5316.1326      27.0546      59.6399 -0.00023262318 -0.0029312972 0.0012449432  0.016778657 
  514000    335.60757    445.60074   -14.683359   -14.685936    207.45594    5200.3646      27.0546      59.6399 -0.00016105688   0.01885594 5.4200415e-05 -0.0017885442 
  515000    335.70544    445.68711    -409.2345   -409.33786    272.25903    5266.6237      27.0546      59.6399 0.00015207219 0.0027162215 0.00032168602 0.0073196581 
  516000    341.18437    452.98146   -195.75802   -195.81579    304.94353    5380.8194      27.0546      59.6399 0.0001741532  0.013213205 -5.6199034e-05  0.019071202 
  517000    340.39791    451.96183   -226.04074   -226.04164    130.16407    5194.3397      27.0546      59.6399 -0.00014069736 -0.020844034 -8.955671e-05 -0.020609847 
  518000    333.84429    443.23311   -245.75761   -245.82136     185.3652    5152.0412      27.0546      59.6399 -4.9602698e-05   0.01485853 0.00054983962 -0.013758767 
  519000    337.71116    448.39481    72.674453    72.674277    195.70632    5219.9105      27.0546      59.6399 0.00048535145  -0.02594085 0.00079949042   0.01033682 
  520000    330.94267    439.32269   -117.95674   -118.15419    191.72247    5115.2304      27.0546      59.6399 -0.0012419978  0.021189417 -3.6921974e-05  0.034990377 
  521000    335.55208     445.4723    251.77764     251.6484    231.31741    5223.4005      27.0546      59.6399 0.00080821482 0.0038811252 0.00016469101 -0.013924509 
  522000    336.33922    446.57024    32.970259    32.963168    151.70851    5155.5021      27.0546      59.6399 -0.000815889 0.0094585482 0.00044452896  0.013239438 
  523000    333.66311    443.01992    276.78165     276.7812    215.40036    5179.3809      27.0546      59.6399 -0.00013438286  0.012866962 -0.00061299612 0.0099519706 
  524000     332.8673    441.96151     64.54535    64.540814    182.50913    5134.6502      27.0546      59.6399 -0.0010459125 -0.010245488 0.00037426838 0.0049005857 
  525000    344.33523    457.17512    350.52605    350.49167    177.20699     5299.959      27.0546      59.6399 -0.00040893267   0.00374611 -0.00054878701 -0.011240573 
  526000    335.30358    445.17801    68.733784    68.686984    196.92512    5185.3113      27.0546      59.6399 -0.00069216019 -0.024874106 -0.0001293935 -0.017682866 
  527000    345.96994    459.35947    349.22594    349.22365    169.62561    5316.6976      27.0546      59.6399 6.3180989e-05  0.023651916 0.0005387768  0.030317086 
  528000    342.86454    455.22848   -104.24962   -104.26996    189.36399    5290.2362      27.0546      59.6399 0.00017178066 -0.010983021 0.00073216273 -0.00011736361 
  529000    336.45777     446.7307   -98.653571   -98.653585    181.56962    5187.1269      27.0546      59.6399 -4.0772777e-06 -0.010263804 3.3710767e-05  0.009697315 
  530000    344.68419    457.52161     241.3787    241.07406    313.44128    5441.3849      27.0546      59.6399 -0.00021224359 0.0024036958 7.5664504e-06  0.034080773 
  531000    336.80219    447.18702   -60.118854    -60.12115    201.84297    5212.5243      27.0546      59.6399 -0.00037104902 0.0035734736 0.00067272526  0.010512078 
  532000    347.43252    461.30081   -43.373351   -43.377009     178.4105    5347.2415      27.0546      59.6399 0.00036586952 -0.0047586711 9.8920196e-05 -0.0046089157 
  533000    337.65638    448.31375   -91.354068   -91.373519    211.39885    5234.7881      27.0546      59.6399 -0.00034146175 -0.0089197699 -0.00010277792 -0.0053832691 
  534000    332.63093    441.64318    99.434817      99.4199    272.96064    5221.5851      27.0546      59.6399 -0.0014351084  0.030503272 0.0010675063   0.01986327 
  535000    338.90882    449.98438   -15.087556   -15.089178    289.84324    5331.8653      27.0546      59.6399 0.00026096532  -0.01429216 -0.00078421954 0.0025225259 
  536000    337.35113    447.88861   -37.097651   -37.162996    259.29862    5278.1465      27.0546      59.6399 -0.00026223164 -0.012654735 -7.3197041e-05 -0.028548173 
  537000    340.04185    451.35605    318.70754    318.39898    332.79845    5391.6768      27.0546      59.6399 0.00071060519  0.018245277 -0.00039349208  0.011396723 
  538000     343.9807    456.71806    46.017647    46.014874    403.97203    5521.4496      27.0546      59.6399 -0.00048402358 -0.00024279292 0.00038273857   0.01948136 
  539000    344.86134    457.87491   -136.44262   -136.47411    251.18983    5381.7689      27.0546      59.6399 0.00010633702  0.017354847 0.00025367851 -0.00075235027 
  540000    339.81422    451.09965    372.17944    371.97689    172.57361    5228.0655      27.0546      59.6399 -0.00062829645  0.015791659 -6.1909734e-05  0.017165983 
  541000    338.56388    449.48967    153.50678    153.42023    306.32651    5343.2168      27.0546      59.6399 -0.00013501789 0.0012974913 -0.00098508794   0.02221078 
  542000    348.56079    462.79414   -243.74924   -243.76385    198.07816    5383.6948      27.0546      59.6399 -0.00020601586   0.01787091 -0.00055882433 -0.021764654 
  543000    337.49976    448.11035    157.77073    157.76182    198.45303    5219.5122      27.0546      59.6399 -3.4049958e-05 -0.032501653 -0.00027563719 -0.015252555 
  544000     341.1955    453.00964   -115.16711    -115.1939    320.57867    5396.6202      27.0546      59.6399 -6.6907148e-05 0.00016625674 1.1826036e-05  0.031490327 
  545000    336.52463    446.79656    -165.5984   -165.65142     246.2887    5252.8407      27.0546      59.6399 0.00026360055 -0.031809542 -0.00018515641 -0.0092306263 
  546000    351.16904    466.23979   -487.54166   -487.59664    194.85952    5419.2797      27.0546      59.6399 0.00078542183   0.01086981 -0.00097735146  0.017834569 
  547000     344.9255    457.63567    -75.61159   -76.393501    166.99738     5298.531      27.0546      59.6399 0.00047752947 -0.021851605 0.00030653527  0.014823381 
  548000    340.55406    452.14848    185.33922    185.29048    170.22855    5236.7273      27.0546      59.6399 -0.0002977374 -0.0080334396 0.00096214422 -0.0037042757 
  549000    342.42327     454.6478   -402.60889   -402.61717    162.80646    5257.1138      27.0546      59.6399 0.00062780781  0.016488883 0.00026808561  0.024052215 
  550000    335.95727    446.06613   -423.58894   -423.58904    213.40295    5211.5142      27.0546      59.6399 -0.0004215664 0.0085558587 0.00090533601 -0.0055978053 
  551000    341.93794    454.00439   -193.71484   -193.72083    243.34322    5330.4301      27.0546      59.6399 -0.00025201352 -0.0075009102 0.00015290348 -0.015649882 
  552000    341.87808    453.89825    44.590694    44.523043    215.52937    5301.7257      27.0546      59.6399 -0.00034191348 -0.033304304 -0.0003946042 -0.015855595 
  553000    332.65211    441.67766    70.131654    70.131416    180.67876    5129.6184      27.0546      59.6399 -0.00025269428  0.030977637 -0.00091073539  0.002408541 
  554000    334.24613    443.79419    113.21716    113.21712    143.28403    5115.9382      27.0546      59.6399 0.00010044795   0.01318282 -0.00049507131   0.02546551 
  555000    334.30879    443.86929    114.44433    114.42556    278.42962     5252.016      27.0546      59.6399 0.00088682968 -0.0037287586 -0.0003653285  0.010599671 
  556000    336.95306    447.38322   -407.29002   -407.30185    109.46552    5122.3913      27.0546      59.6399 0.00015019803 -0.025560322 0.00040724858 -0.0066144649 
  557000    335.68853    445.68418   -181.70674   -181.76497    190.28047    5184.3936      27.0546      59.6399 0.0001931247 -0.011578254 -0.00045737769 -0.018686028 
  558000    337.39346    447.94341    12.324974    12.256373    235.39964    5254.8774      27.0546      59.6399 -0.00010571229  0.004069816 0.00094863364 -0.0052484407 
  559000    342.44601    454.64509    180.13056    180.04618    156.31994    5250.9656      27.0546      59.6399 0.00041633138 0.0076454585 -0.00011754041 -0.0061530524 
  560000    337.36754    447.93388    254.09102    254.07998    376.69213    5395.7843      27.0546      59.6399 -4.0034166e-06  0.013568385 -8.1259304e-05 -0.0021793702 
  561000    336.99501    447.43135    67.960134    67.930808    214.79649    5228.3464      27.0546      59.6399 0.00073435388  -6.6428e-05 -0.000228399  0.008534123 
  562000    342.60229    454.77876    204.57144    204.31629    202.50827    5299.4789      27.0546      59.6399 3.2793538e-05 -0.0088626669 -0.00069602788 0.0062783776 
  563000    343.69451    456.30343    17.085179    17.002286    130.29777    5243.5177      27.0546      59.6399 -0.00041312891 -0.0099404188 0.00064690133 -0.013194668 
  564000    337.60573    448.25233     3.361876    3.3559028    224.53812    5247.1738      27.0546      59.6399 0.00014064548  0.001358834 -6.6165075e-05 -0.025560065 
  565000     339.2806    450.44225    28.817966    28.733633    170.84281     5218.396      27.0546      59.6399 0.00010351894 -0.016707523 -0.00033488664  0.011340946 
  566000    338.33359     449.2147   -9.4109779   -9.4263088    290.38715    5323.8514      27.0546      59.6399 0.00049616715 -0.0038436677 -3.98977e-05 -0.026467671 
  567000    338.59798    449.56217    110.56664    110.54307    198.22347    5235.6211      27.0546      59.6399 0.00014537781  0.026571966 -0.00027753206 -0.0047855138 
  568000    338.60058    449.57581   -129.35628   -129.35628    150.95606    5188.3923      27.0546      59.6399 -0.00013774885 0.0076513787 -0.00037606955  0.025963066 
  569000    350.00859    464.68631    100.55888    100.47456    185.48935    5392.6452      27.0546      59.6399 0.00013198359 0.0013908678 -0.0005953593  0.012904229 
  570000    342.73628    455.03912    59.461984    59.397547    154.07885    5253.0429      27.0546      59.6399 -3.9603786e-05 0.0022743748 0.00073877592  0.037179408 
  571000    341.43131    453.31749   -72.352697   -72.391598    91.858117    5171.4078      27.0546      59.6399 -0.00042151461 -0.013451428 -4.1571129e-05 0.00018563965 
  572000    346.82458    460.49305    -86.42203   -86.427013    195.10712    5354.8937      27.0546      59.6399 -6.4713036e-05 -0.0029639419 0.00019150031 -0.0093051724 
  573000    336.47539    446.74563    47.460337    47.440728    206.26764    5212.0871      27.0546      59.6399 -0.00071878911  0.018157458 -0.001434287  0.018585484 
  574000    342.70127    455.01986    226.78233    226.78085    124.23524    5222.6785      27.0546      59.6399 0.0005985019  0.006245461 0.00092674377 8.7363958e-05 
  575000    349.02588    463.40519   -52.432344   -52.461913    245.89751    5438.4333      27.0546      59.6399 -3.0292406e-05 0.0057640805 0.00014212434 0.0083156101 
  576000    332.23862    441.12453    123.41155    123.40178    215.06311    5157.8512      27.0546      59.6399 -0.00013299508 -0.025404689 0.00046751121 -0.0037110152 
  577000    337.67578    448.34434    77.908842     77.90058    184.35911     5208.037      27.0546      59.6399 0.00011071556 -0.016247844 0.00029107571 -0.015544045 
  578000    340.60717    452.20595   -404.27201   -404.35089    83.936153    5151.2249      27.0546      59.6399 -0.00064462597 0.0051100885 -0.00026834836  0.010015065 
  579000    339.89545    451.29299    59.765193    59.760379    225.26013    5281.9605      27.0546      59.6399 0.00028856355 -0.0014902572 -0.00023654766  -0.00284277 
  580000    338.32168    449.18151    -78.59262   -78.648122     253.8456    5287.1326      27.0546      59.6399 0.00038635235 -0.025783127 8.899096e-05 0.0038675161 
  581000    343.09772     455.5457   -14.507985   -14.510726    108.68224    5213.0235      27.0546      59.6399 -0.00043872952 0.0048421673  0.000232265 0.0035952028 
  582000    335.54276     445.4593   -228.46317   -228.59386    195.64958     5187.594      27.0546      59.6399 -6.1221369e-05 -0.018279368 0.00023992052 -0.0031470624 
  583000    336.05967     446.1922   -187.95442   -187.97741    195.31197    5194.9467      27.0546      59.6399 -0.00061515616 -0.018605975 0.00041091709 -0.035288841 
  584000     341.1317    452.93455   -154.41788   -154.42242    180.71187    5255.8043      27.0546      59.6399  0.000227305 0.0062799594 -0.00044640378 -0.014121653 
  585000    342.96253    455.26417   -110.04349   -110.28222    250.00558    5352.3356      27.0546      59.6399 0.00014313298 -0.016914488 -0.00015913199 -0.001365393 
  586000    340.51991    451.89132   -46.160278   -46.698922    256.84222    5322.8328      27.0546      59.6399 -5.4949236e-05   0.01666137 0.00039172899 -0.010265886 
  587000    336.36007    446.59697    115.24316    115.23388    184.53971    5188.6434      27.0546      59.6399 -9.3835592e-05  0.021843221 -5.1809492e-05  0.024617813 
  588000    347.70833    461.66842   -400.88421   -400.88463     330.4064    5503.3408      27.0546      59.6399 -0.00012719426 0.0011676511 0.00018814149 -0.0091238691 
  589000    339.52156    450.71786    228.17367     227.9868    357.68273    5408.8208      27.0546      59.6399 0.00028779286 -0.031942852 0.00085587264 -0.0027982258 
  590000    332.62678    441.58672   -177.19224   -177.32502     264.8172      5213.38      27.0546      59.6399 -0.00013066822  0.020459719 0.00082510243   0.01890765 
  591000    336.92983    447.31534   -81.749922   -81.847407    348.15281    5360.7331      27.0546      59.6399 -0.00069704731 -0.0044983426 0.00012347038  0.013754846 
  592000    343.71315    456.06351   -114.79727   -115.49236    396.60606    5510.1032      27.0546      59.6399 -0.00014807798 -0.021032492 0.00022392435  0.023996507 
  593000     337.7873    448.34024    222.99559    222.63534    222.37487    5247.7119      27.0546      59.6399 0.00022803702 0.0054413271 0.00014553373 -0.016079484 
  594000    337.23699    447.66533   -376.31986   -376.55114    207.77506    5224.9249      27.0546      59.6399 1.2670208e-05 -0.013353063 0.0009191356 -0.0083239719 
  595000    334.08633    443.55319    225.55092    225.48419    101.14757    5071.4244      27.0546      59.6399 0.00094807985  0.053382671 -0.00024355501 -0.016366164 
  596000    340.31017    451.57426   -232.07354   -232.70143     290.0716    5352.9418      27.0546      59.6399 0.00050999259  0.009777448 -0.00063183683 -0.014691144 
  597000    347.77938    461.75963    161.96249    161.95485     245.6145    5419.6058      27.0546      59.6399 0.00028731046 -0.040610958 -0.00013225574   0.01053296 
  598000    341.12977    452.91084    1.3196872    1.2662697    168.37176    5243.4354      27.0546      59.6399 0.00048096947  0.032018128 0.00053188644  0.013285692 
  599000    334.93708    444.69208   -151.83685   -151.88206    223.64098    5206.5747      27.0546      59.6399 2.5678953e-05 -0.0076499357 0.00021312896 -0.012613093 
  600000    333.72819    443.03359    251.58888    251.42017    215.16144    5180.1102      27.0546      59.6399 -0.00067498424 -0.0067639924 -0.00054835667 -0.006201477 
  601000    342.72444    455.00444   -361.27255   -361.38083     200.3761     5299.164      27.0546      59.6399 -8.0626338e-05  0.029077985 -0.00031744193  0.015006912 
  602000    342.75511    455.08358    428.92705    428.90763    188.05691     5287.301      27.0546      59.6399 -0.000103043 -0.0067839781 7.0575094e-06 -0.0022547199 
  603000    341.99407    454.08118    235.18821    235.18745     114.3067    5202.2287      27.0546      59.6399 -0.00028972896 -0.011226121 0.00065679886 -0.00061802077 
  604000    334.98915    444.71593     581.6698    581.51987    185.36989    5169.0782      27.0546      59.6399 -6.7825457e-05 -0.00062935652 0.00042021037  0.030247133 
  605000    339.95394    451.37176   -16.653831   -16.656107     169.7863    5227.3569      27.0546      59.6399 -0.00035617613 0.0076567507 0.00056703476 -0.004825543 
  606000    340.00529    451.39856     -165.616   -165.71397    182.76238    5241.0969      27.0546      59.6399 0.00019401016 0.0057061041 -0.00025340929 -0.0096640587 
  607000    346.18085    459.62143   -268.16518   -268.20929    222.03216    5372.2418      27.0546      59.6399 0.00023679901 -0.015531469 0.0001499448 -0.043877183 
  608000    338.53382    449.37264     -52.9137   -53.178622    363.08407    5399.5272      27.0546      59.6399 0.00042299939 0.0051507987 0.00019001555 -0.015170081 
  609000    336.98197     447.3649    187.49314    187.35016    236.21403    5249.5699      27.0546      59.6399 -3.2637054e-05  0.012902756 -0.0001298778 0.0069416577 
  610000     346.8479    460.51548   -267.77691   -267.80164    201.85411    5361.9877      27.0546      59.6399 -0.0003404378 -0.020078946 -0.0002801221 -0.026866534 
  611000    336.54283    446.82211    167.31493    167.26511    156.96654    5163.7892      27.0546      59.6399 0.00043903388 -0.011154557 -0.0005560974  0.022612769 
  612000    337.66865     448.3305    312.63892    312.62052    315.89145    5339.4633      27.0546      59.6399 -8.3770036e-05  0.062712729 0.00016379866 -0.033164512 
  613000    342.53819    454.80196    159.45523    159.45061    89.278768    5185.2958      27.0546      59.6399 0.00048589156  0.021233029 0.00079938032 0.0039210142 
  614000    343.35112    455.85492    366.18724    366.12153    286.70928    5394.8204      27.0546      59.6399 -0.00018742873 -0.022268884 0.00065499724 -0.013461898 
  615000    341.19936    453.02626    4.7414928    4.7413018    206.91299    5283.0119      27.0546      59.6399 0.00012114992 -0.017615543 -0.0013656549 0.0024629863 
  616000     350.7131    465.61995   -126.23178    -126.3202    122.91337    5340.5503      27.0546      59.6399 0.00012693676  0.012392229 0.00074989831 0.0076416915 
  617000    338.89894    449.97181    186.33432    186.33396    238.34679    5280.2218      27.0546      59.6399 -0.00030690128 -0.026581616 -0.00010869816 -0.0055906056 
  618000      343.865      456.525    258.61581    258.52181     74.89125    5190.6475      27.0546      59.6399 -2.9056037e-05 0.0022667955 -0.0002702755 -0.016203149 
  619000    339.03338    450.13999    211.44707    211.42285    73.427327    5117.3025      27.0546      59.6399 0.00021468064  0.022968155 -0.00022554114  0.024352493 
  620000    344.99308    458.04386    353.48648     353.4412    90.559317    5223.0983      27.0546      59.6399 0.00051384927  0.007529387 0.00019441662 -0.0041115059 
  621000     333.9648    443.38898    561.08734    561.01401    179.33936    5147.8082      27.0546      59.6399 0.0010638662 0.0032238698 0.00017577933 -0.021932043 
  622000    341.48698    453.36667    278.20873    278.11259    27.297249    5107.6753      27.0546      59.6399 -0.00068666491 -0.011683189 -0.00082557146 0.00034703863 
  623000    334.70473     444.3906   -180.40258   -180.43154    230.19084    5209.6678      27.0546      59.6399 -0.0003202562 -0.021224164 3.5580547e-05 0.0016917011 
  624000    337.78451     448.4876   -69.678639   -69.689469    133.24875    5158.5442      27.0546      59.6399 -9.3559337e-05 -0.0070639291 0.00060756151 -0.0033966223 
  625000    335.88234     445.9409    140.61908    140.55943    198.70245    5195.6989      27.0546      59.6399 -0.00039123464 -0.035271256 0.00062640435 -0.0071537255 
  626000    346.14508    459.58481    13.557192    13.538244    145.24334    5294.9209      27.0546      59.6399 0.00031169371 -0.0050177435 3.3642594e-05  0.032329967 
  627000    344.51835    457.43311     -167.899   -167.89901     171.3866    5296.8629      27.0546      59.6399 -0.0011367434 -0.012688368 0.00042605499 -0.0048033345 
  628000    345.22634    458.37234    8.0841408    8.0822522    110.20005    5246.2093      27.0546      59.6399 -0.00044678521 0.00078707636 -0.00012491026 -0.016537168 
  629000    335.23514    445.07353   -247.70645    -247.7847    187.47123    5174.8391      27.0546      59.6399 -1.8441948e-05 -0.0088979135 0.00031823525 -0.030903477 
  630000    339.73872    451.08189   -6.1937058   -6.2054664    246.02834     5300.397      27.0546      59.6399 -0.0001481106 -0.029468125 0.00042058984  0.013147198 
  631000    352.10045    467.49024   -239.70892   -239.73201    269.84851    5508.1254      27.0546      59.6399 -0.00042334362 0.0065941871 0.00031662978 -0.0047226509 
  632000    341.03064    452.79871   -325.53641   -325.54475    257.77374    5331.3626      27.0546      59.6399 8.8037064e-05 -0.023867426 0.00090203719  0.026280585 
  633000    338.53988     449.4473   -272.55571   -272.66654    334.25347    5370.7867      27.0546      59.6399 -0.00029232332  0.001283602 0.00050562789 0.0027857258 
  634000      345.715    458.94705   -165.34524   -165.51852    296.13103    5439.4101      27.0546      59.6399 0.00038926935 0.0098488249 4.7179903e-05  0.023076781 
  635000    339.97831    451.40384     283.7406     283.7377    261.91992    5319.8531      27.0546      59.6399 -7.1916627e-05 -0.011116572 9.7248399e-05 -0.032225398 
  636000    340.44058    452.01788    90.873168     90.87088    246.96715    5311.7775      27.0546      59.6399 -0.00072452096  0.035468628 -0.00072998866 0.0041349978 
  637000    338.53935    449.49282    -139.4714   -139.47534    324.71435    5361.2397      27.0546      59.6399 -0.00027921697 -0.023087509 0.00028985899 -0.014493266 
  638000    337.33227    447.87866   -216.12638   -216.15684    266.53899    5285.1064      27.0546      59.6399 0.00026087524 0.00021915894 0.0004532606 -0.016624226 
  639000    332.49635    441.46969   -113.45213   -113.45504    260.66243    5207.2848      27.0546      59.6399 -0.00039261247   0.01710267 -0.00058335564   0.03230759 
  640000    339.81089    450.97966   -172.09414   -172.56401    258.23056    5313.6729      27.0546      59.6399 -2.6852285e-05 -0.029111926 -0.00054304869  -0.01227531 
  641000    335.47882    445.33497   -224.63159   -224.85352    238.01186    5229.0051      27.0546      59.6399 -0.00045199882 -0.027355956 0.00012678233  -0.03039873 
  642000    335.45891    445.39022   -66.842045   -66.875013    261.86905    5252.5661      27.0546      59.6399 0.00072031645  0.036522827 -0.0001674255  0.017249861 
  643000    340.15774    451.64332   -14.589333   -14.589376    224.01813    5284.6207      27.0546      59.6399 -4.2991876e-05 0.0034467179 0.00068532266 -0.0036957157 
  644000    335.45175    445.36195   -264.46201   -264.53838    202.38593    5192.9764      27.0546      59.6399 -3.7681198e-05 -0.024262576 -0.00020418729  0.005321898 
  645000    334.97063    444.69745   -156.06707   -156.20287    373.35472    5356.7875      27.0546      59.6399 0.0003746541 -0.012605797 0.00058226292 -0.022923012 
  646000    351.23436    466.35024    89.559532    89.559441    275.54374    5500.9356      27.0546      59.6399 -0.00013952927  0.035892484 -0.001169012 0.00027896183 
  647000     336.0019    446.12231    142.42255    142.41535    329.18447    5327.9596      27.0546      59.6399 0.00019554368 -0.021371474 -8.5179095e-06  0.017536584 
  648000    336.12023    446.23398    343.98636    343.87404    312.09519    5312.6308      27.0546      59.6399 0.00042309695 -0.0035560741 -0.0003382761   0.03787089 
  649000    343.17388    455.62546   -32.423192   -32.475319    141.69608    5247.1703      27.0546      59.6399 -0.0002138516 0.00048365368 -4.3470179e-06  0.013482642 
  650000    342.10504    454.22795    464.69843    464.69634    301.90416    5391.4771      27.0546      59.6399 -0.00050188396  0.012192385 0.00095666521  0.039235755 
  651000    338.84491    449.89972   -176.81597   -176.81715    264.84526    5305.9166      27.0546      59.6399 -0.00084267222  0.008055037 -0.00039235661 0.0066927212 
  652000    342.54581    454.79321     115.0999    115.05161    125.55909    5221.6895      27.0546      59.6399 0.00043260873 0.0027343309 0.00016378235 -0.00076638653 
  653000    338.66205    449.60294    105.97113    105.84509    190.34617    5228.6969      27.0546      59.6399 9.6339779e-05 -0.0055247205 0.00012330138 -0.014820256 
  654000     344.6848    457.64453    239.33452    239.31234    189.71632    5317.6689      27.0546      59.6399 -0.00011270641  0.013633792 4.3002192e-05 -0.0090693949 
  655000    350.52752    465.41158    -120.0522   -120.05265    327.53564    5542.4117      27.0546      59.6399 -0.0012539424 -0.0017128296 0.0005763115 0.0057333452 
  656000    336.68328    446.98633    60.951456     60.85016    209.12581     5218.038      27.0546      59.6399 0.00045726623  0.012422584 1.1585001e-05 -0.029619009 
  657000    344.73622    457.70698    402.49393    402.45826    301.72395    5430.4416      27.0546      59.6399 -0.00087679787 0.0072509293 -0.00032034635 -0.0013489661 
  658000    332.05251    440.88163   -67.222937    -67.22296    199.59836    5139.6176      27.0546      59.6399 -0.00021127449 -0.014073828 -0.00034177189 -0.011372567 
  659000    335.91058    445.97334   -224.13259   -224.20391    168.94343      5166.36      27.0546      59.6399 -0.00079052247  0.015786352 0.00021144706 -0.027707138 
  660000    334.08093    443.57374   -273.86649    -273.8691    177.93282    5148.1294      27.0546      59.6399 -2.9476274e-05 -0.010653724 -0.00016865366 0.0052600985 
  661000    341.12473    452.89446   -93.711457   -93.787287    161.34088    5236.3295      27.0546      59.6399 0.0001355407 -0.018470795 0.00011700858 0.0097478101 
  662000    341.93535    453.97358   -165.94403   -166.01334    109.95278    5197.0012      27.0546      59.6399 -8.3812313e-05 -0.023355295 0.00010196118 -0.027509203 
  663000    339.64664    450.93295   -406.75056   -406.82405    164.13444    5217.1333      27.0546      59.6399 0.00050080903 0.00042576269 -7.2667447e-05   0.02062345 
  664000    341.46347    453.37669    331.80408    331.80335    135.83929    5215.8674      27.0546      59.6399 7.9016536e-06 -0.0052820205 0.00076630362 0.0087482938 
  665000    339.23921    450.42115   -102.73019   -102.73622    86.843681     5133.781      27.0546      59.6399 0.00020227952 0.0094540797 0.00018546644 -0.014203833 
  666000    343.50608    456.04161   -167.78289    -167.8927    148.28933    5258.7059      27.0546      59.6399 0.00013150479  0.016446335 -0.00060463457 -0.0028447674 
  667000     340.6619    452.31164    58.786218     58.78371   -32.568033     5035.535      27.0546      59.6399 -0.00016588497 -0.010544443 -0.00039856457  0.021158902 
  668000    336.03135     446.1628    115.78359    115.77959    112.90656    5112.1199      27.0546      59.6399 0.00058288528  0.027953353 0.00012705983 -0.012351608 
  669000    335.60845    445.54793   -28.751582   -28.878998    139.61541    5132.5371      27.0546      59.6399 0.00019707001 -0.011203714 -6.0533317e-05 -0.013279364 
  670000    348.85885    463.19531   -39.969254   -39.971311    112.23488    5302.2857      27.0546      59.6399  -0.00027085 -0.019202034 0.00022593053 0.0081322413 
  671000    347.04911     460.7763    410.42298    410.38362    131.63208     5294.759      27.0546      59.6399 -0.00054919142 -0.0043679176 0.00039373424 -0.027292546 
  672000    341.62484    453.54794    4.5554747    4.4552542    212.51476    5294.9437      27.0546      59.6399 -0.00011222255 -0.012527394 -1.0308392e-05 -0.0051932442 
  673000    336.97362    447.38189   -40.325583   -40.403617    127.43596    5140.6676      27.0546      59.6399 -0.00023870612 0.0080864425 -0.00014591423 0.0023473107 
  674000    338.39186    449.28703    166.34497    166.31801    101.85188     5136.183      27.0546      59.6399 0.00016589603  -0.00858319 -0.0005206521 -0.037519355 
  675000    341.77628    453.75646   -237.36989   -237.45289    94.791561    5179.4735      27.0546      59.6399 0.00040084431 -0.0077344533 -0.00014988389  0.017275075 
  676000    343.21193    455.66666   -95.627275   -95.700981    52.578113    5158.6186      27.0546      59.6399 -0.00086051298 -0.00063110335 0.00015235684 -0.025262209 
  677000    335.85966     445.9353    466.48156    466.47863    101.64486    5098.3039      27.0546      59.6399 -0.00092098829 -0.010638885 -0.00047912648 -0.012177862 
  678000    339.28064    450.39569   -180.92261   -181.11477    103.25208    5150.8058      27.0546      59.6399 9.4451513e-05  0.040614415 0.00015836092 -0.0028379189 
  679000    340.15949    451.61737    -129.2495   -129.31492    118.75385    5179.3824      27.0546      59.6399 -0.00025263549 -0.0013219911 0.00035530952 -0.016935528 
  680000    336.00439    446.12776   -223.24126   -223.24351    208.55294    5207.3651      27.0546      59.6399 -3.0747906e-06  0.034900954 -0.00034601916  0.018407938 
  681000    339.28417    450.45267    379.96168     379.8905    298.83001    5346.4362      27.0546      59.6399 -0.00023326127 -0.022529837 7.6323954e-05 0.0059141705 
  682000    335.73684    445.77346    181.17166    181.17159    200.62258    5195.4544      27.0546      59.6399 -0.00075344706 0.0042531756 8.0244301e-05  0.035187091 
  683000    337.52623    448.10208    218.99619    218.88685    224.47628    5245.9293      27.0546      59.6399 -0.00029594856 0.0044702644 -0.00065770088 0.00091532981 
  684000    334.08092    443.55421    159.08037    159.03264    233.06888    5203.2651      27.0546      59.6399 0.00072897659  0.020760992 0.00040460477 0.0094517841 
  685000    336.25135    446.45093     4.454085    4.4408903    343.02282    5345.5091      27.0546      59.6399 -0.00064494611 -0.0011054867 -0.00058477725 0.0089890563 
  686000    339.13116    450.21622    189.30567    189.15745    193.28966    5238.6196      27.0546      59.6399 -1.0847162e-05  0.012188727 -0.00029495041  0.012355172 
  687000    337.75336    448.37363   -73.839854    -74.01865    107.93853    5132.7706      27.0546      59.6399 -9.7584914e-05   0.01171885 -0.00042651188 0.0082347036 
  688000    338.69207     449.6961    108.10697    108.10421    233.85452     5272.652      27.0546      59.6399 -0.00047004735 -0.0096593126 -9.8025039e-06 -0.029861418 
  689000    344.34487     457.1911   -214.74087   -214.76788    208.35538    5331.2507      27.0546      59.6399 -0.00016387516 -0.023593156 -0.00044282938 -0.015783049 
  690000    339.22194     450.2625   -192.05884   -192.37879    374.49061     5421.171      27.0546      59.6399 0.00023582452 -0.0099811773 -0.0013010886  0.017523413 
  691000    353.72204    469.58928    -148.4001   -148.54815    111.00649    5373.4081      27.0546      59.6399 -0.00016444235 -0.00093666362 -0.00050665296 -0.0066375781 
  692000    339.19741    450.36013    214.98658    214.96776    298.13862    5344.4542      27.0546      59.6399 0.00028769267 0.0069102104 0.00074824525 0.0040136853 
  693000    335.20178     445.0578    184.02812    184.01593    207.43024    5194.3019      27.0546      59.6399 -0.00013618519 -0.0025989583 -0.00060022139 -0.0041022142 
  694000    333.63069    442.95027    264.61926    264.55728    256.04032    5219.5385      27.0546      59.6399 0.00019521185  0.014872108 0.00055882498  0.016413395 
  695000     338.4065    449.30613   -233.32763   -233.35539    323.22758    5357.7766      27.0546      59.6399 -0.00038602807   -0.0149241 7.0780955e-05  0.017146672 
  696000    338.42846    449.33771    60.314565    60.292419    388.94521    5423.8209      27.0546      59.6399 0.00034463962 -0.018953443 -2.9834785e-05 -0.017434235 
  697000    339.69447    450.99124     281.6961    281.61055    209.16165    5262.8721      27.0546      59.6399 0.00050807799  -0.01315213  0.000497085 -0.0013981728 
  698000    342.19126    454.33943    46.416928    46.407901    205.26393    5296.1196      27.0546      59.6399 -2.9750847e-05  0.047310732 -0.00033935813 -0.0065446051 
  699000    345.82514    459.16653   -257.77816   -257.78203    194.39268    5339.3104      27.0546      59.6399 -0.00092857125  0.011765584 0.0006751451 -0.0039425568 
  700000    338.82305    449.87102    1.0313772    1.0309369    169.94355    5210.6897      27.0546      59.6399 -0.00015538283 0.0053457565 -0.00022275475 0.0029564308 
  701000    338.18003     449.0108   -25.845001   -25.860342    86.877256    5118.0569      27.0546      59.6399 0.00016241342 -0.0069140859 -0.00056932578 -0.034251266 
  702000    335.64044    445.56185    224.52437    224.33089    196.01813    5189.4158      27.0546      59.6399 -2.8971801e-05 -0.026049251 -0.0002425347 -0.019412455 
  703000    337.77359    448.47757   -89.561736   -89.562234    395.56259    5420.6957      27.0546      59.6399 0.00021523583 -0.0038910252 -0.00053118631 -0.0036661976 
  704000    346.13769    459.43617    80.979144    80.639061    203.45689    5353.0245      27.0546      59.6399 -0.00026219866 -0.037221892 -0.00074236041 0.0011565763 
  705000    345.53155    458.77497    -42.01207   -42.019991    186.50649    5327.0565      27.0546      59.6399 -0.00030001635  0.024529069 0.00074289536 -0.024861408 
  706000    338.03013    448.81841   -186.40921   -186.40922     262.3782    5291.3279      27.0546      59.6399 -0.00013107134 0.0041880447 0.00064723045 -0.016970408 
  707000    341.46844    453.34097   -247.22914   -247.32777    224.02428    5304.1265      27.0546      59.6399 -0.00038227054 -0.0053792292 -8.9718394e-05  -0.03004667 
  708000    339.09385    450.22667   -226.65201   -226.66144   -21.239155    5023.5356      27.0546      59.6399 0.00021816677 0.0031537698 -0.00062410632  0.033708663 
  709000    345.42781    458.63887     220.1549    220.15078     158.0399    5297.0465      27.0546      59.6399 0.00036579275 -0.00024357925 0.00035159668 -0.020344011 
  710000    331.00599    439.46361    63.045427    62.979466    150.41427    5074.8642      27.0546      59.6399 -0.00067266414 0.0093337109 -0.00038135741  0.028386481 
  711000     339.7998    451.16451    69.438858    69.430611    165.71528    5220.9926      27.0546      59.6399 -0.00034444471  0.015751871 4.9428107e-05 0.0044655329 
  712000    338.96891     450.0644     102.7015     102.7004    177.74409    5220.6602      27.0546      59.6399 8.7887571e-05 0.0033134506 -1.5058699e-05  0.020967604 
  713000    339.79352    451.13542    33.388288    33.332033    177.15326    5232.3373      27.0546      59.6399 -0.00067404391 0.0073680247 -0.00039536817 -0.0041519945 
  714000    335.13244    444.71216    315.19141    314.59271    122.73255    5108.5725      27.0546      59.6399 0.00030365759   0.01447573 0.00042707549 -0.00096873478 
  715000    335.35482    445.14655   -340.07998    -340.3569    162.86708    5152.0156      27.0546      59.6399 -0.00037416186 -0.0032317386 -0.00064531705 -0.0035672747 
  716000      339.966    451.37905   -149.09054   -149.11298    16.540094    5074.2901      27.0546      59.6399 -0.00015626606 -0.0031279474 -0.00050170891  0.018356878 
  717000    335.83541    445.89975    129.33136    129.32068     201.2964    5197.5946      27.0546      59.6399 -0.00062032565 -0.026103688 -0.00042074172  0.012189585 
  718000    343.77382    456.42939    135.21633    135.18123    126.27185    5240.6716      27.0546      59.6399 0.00039208426  0.020154701 0.00086352074  0.004262037 
  719000    341.66754    453.58737    236.74734    236.60717    87.139746    5170.2039      27.0546      59.6399 -0.00061888282 -0.0096374399 0.00022031211 -0.0016209122 
  720000    347.16508    460.93359    -32.30217   -32.333888   -83.371539    5081.4807      27.0546      59.6399 0.0004462049 -0.0078021987 -0.00033197949 -0.012045913 
  721000     350.7277    465.66679    354.95501     354.9301    180.76448    5398.6187      27.0546      59.6399 0.00031697048  0.029968591 0.00058782172  -0.01337136 
  722000     335.7918    445.84046   -42.508582   -42.522465    124.18617    5119.8356      27.0546      59.6399 -5.9453071e-05 -0.0052544025 -0.00099660745  0.014799877 
  723000    339.14644    450.29719   -128.19508   -128.20294    238.60003    5284.1573      27.0546      59.6399 0.00050609495  -0.01018157 0.00015513519 -0.00025068972 
  724000    340.96807    452.64471    485.42533    485.25291    139.34942    5212.0075      27.0546      59.6399 -0.00010467139 -0.00024135176 -0.00096066085  0.016667411 
  725000    328.66619    436.37575   -70.450918    -70.47339    149.41531    5039.0555      27.0546      59.6399 0.00032573201 -0.014345993 -8.7587395e-05 0.0057107664 
  726000    341.28742    453.09521   -195.30574   -195.41689    175.17635    5252.5854      27.0546      59.6399 -0.00031204715 0.0035941497 0.00026075902 -0.007467402 
  727000    335.68144    445.66805   -164.82207   -164.89582    25.421338    5019.4289      27.0546      59.6399 -0.00035534271  0.023751496 -0.00057555083 -0.0042607185 
  728000    337.28671    447.77293   -86.559117   -86.694216    70.099634    5087.9893      27.0546      59.6399 2.3753846e-05  0.034553418 0.00037667145 -0.020154707 
  729000     336.0736    446.17426   -276.42218   -276.52942    78.213444    5078.0552      27.0546      59.6399 0.00051368937 0.0062361673 0.00038849249 -0.0080229308 
  730000    341.78037    453.74516    10.628401    10.506715    112.58824    5197.3309      27.0546      59.6399 -0.00048572721 -0.027492198 -0.00053884948 -0.00028313968 
  731000    343.81753    456.47839    -144.4191   -144.47511    196.84182    5311.8918      27.0546      59.6399 -0.00019589615 -0.016776834 0.00024806987  0.028000934 
  732000    334.37536    443.94547    122.35684    122.30984    135.98404    5110.5608      27.0546      59.6399 -0.00067794181  0.022198259 0.00039091929  0.046882002 
  733000    340.21536    451.56442    93.122701    92.763217    133.55697    5195.0168      27.0546      59.6399 -0.0011586138  0.010070668 -0.00029218355  -0.01622185 
  734000     340.0918    451.53165    79.728861    79.673062    255.45873    5315.0802      27.0546      59.6399 -0.00031615736 0.0073139387 -2.8645444e-07 -0.0046448609 
  735000     342.8842    455.26327   -206.65924    -206.6595    253.17671    5354.3414      27.0546      59.6399  0.000479334 -0.00069852641 0.00021765496 0.0090816104 
  736000    328.04265    435.41199   -176.12779   -176.46448    213.94096    5094.3046      27.0546      59.6399 -8.5481233e-05 0.0074156114 -0.00040767117 -0.016275435 
  737000    337.85158    448.56835   -75.112005   -75.142037     213.3098    5239.6031      27.0546      59.6399 -2.6875797e-05 -0.021271157 0.0010305703   0.01902993 
  738000    345.65031    458.93158   -285.99141    -286.0018    243.63411    5385.9509      27.0546      59.6399 0.00016508968  0.028329807 0.00058721204 -0.0058531769 
  739000    332.07307    440.90252    1.4507361    1.4359036    257.64185     5197.967      27.0546      59.6399 0.00038297374 0.0052293295 0.00050591228  0.049981569 
  740000    335.53736    445.44248   -176.73777    -176.8908     204.5957    5196.4599      27.0546      59.6399 5.3186623e-05  0.029378758 8.7586565e-06   0.01635269 
  741000    338.42958    449.29127   -482.50498   -482.63798    160.03235    5194.9246      27.0546      59.6399 2.1162798e-06 -0.0091734671 -9.1292603e-05  0.014024282 
  742000    341.19179    452.93869    196.90126    196.72177    146.34088    5222.3272      27.0546      59.6399 0.00050666282 0.0012593622 0.0007100901  0.026479496 
  743000    341.82233    453.75336   -397.53303   -397.76462    155.63433    5241.0014      27.0546      59.6399 -0.00081468943 0.00033046895 0.00027980207 -0.0020595326 
  744000    342.56772    454.70635   -79.158334   -79.474825    250.96793    5347.4243      27.0546      59.6399 0.00090164204  0.013158968 -0.00014011115 0.0022358723 
  745000    345.01341    458.09001   -303.96772   -303.96868      355.581    5488.4224      27.0546      59.6399 2.0743056e-05  -0.01713243 0.00023887369 -0.017080389 
  746000    341.50354    453.42519    196.57695    196.56532    288.66559    5369.2899      27.0546      59.6399 -0.00023467637 -0.020377066 0.00061009984 0.0040287754 
  747000    335.33227    445.20607   -32.445158   -32.515128    164.73791    5153.5508      27.0546      59.6399 0.00018489411 -0.0024447066 -1.6618816e-05 -0.016844841 
  748000     340.0841    451.52054    -247.0812   -247.13907    330.17707    5389.6841      27.0546      59.6399 0.0002543763 -0.028865492 0.00049155632 -0.013518071 
  749000    345.25642     458.3754   -163.70623    -163.7934    199.03749    5335.4942      27.0546      59.6399 -0.0011465451  0.043325057 0.00012481401  0.005552709 
  750000    338.99806    450.06922   -137.87527   -137.95473    85.848199    5129.1979      27.0546      59.6399 0.00011862532 -0.015673064 0.0020490676  0.043049411 
  751000    333.10877    442.27373   -255.39262   -255.41658    197.44462    5153.1781      27.0546      59.6399 -0.00019758207 -0.011215586 -0.00097422464 0.0032093487 
  752000    339.25409    450.34983    251.28613    251.06942    204.45349    5251.6123      27.0546      59.6399 0.00031303175 0.00022644178 -0.00035338381 -0.0080517139 
  753000    335.13669    444.83699    337.83338    337.51033    313.57978    5299.4831      27.0546      59.6399 -0.00049068773 -0.028245874 0.00065226295  0.014879615 
  754000    346.90211    460.59117     98.90074    98.884593    311.04596    5471.9861      27.0546      59.6399 -7.1906322e-05 -0.018033704 -0.00031510306  0.029607287 
  755000    342.43958     454.6001   -180.38154   -180.55025    226.93104     5321.481      27.0546      59.6399 -0.0003337947 -0.0069236784 0.00029536164  0.028420316 
  756000     335.7383    445.64341    128.33843    128.03305    160.15425    5155.0079      27.0546      59.6399 -0.00012314171  -0.02756551 0.00050071884 -0.012330319 
  757000    340.20211    451.69692   -328.62372   -328.63604    149.22596    5210.4886      27.0546      59.6399 -0.00042582192  0.019311598 0.00044613839 -0.025462622 
  758000    335.47182    445.37069   -114.44403   -114.56183    329.49647    5320.3856      27.0546      59.6399 0.00028523319 -0.020711278 -0.00015466766 -0.0058859626 
  759000    333.22571    442.42571    165.52048    165.48893    229.80321    5187.2764      27.0546      59.6399 -0.00018158953 -0.0082917004 -0.00023216715 -0.013418145 
  760000    350.21829    464.99905    347.68649    347.68153    199.92371    5410.1993      27.0546      59.6399 0.00025319774 0.0079915763 -9.3063481e-05  0.010426026 
  761000    333.52678    442.83512    250.19687    250.18767    198.07042    5160.0227      27.0546      59.6399 -0.00087815356 -0.0013231047 -0.001103574 0.00025574012 
  762000    346.93536    460.60949   -61.643432   -61.719317    345.37635    5506.8111      27.0546      59.6399 0.00047605478  0.010177817 -2.072661e-05 -0.011078551 
  763000    338.17751    449.00348    127.35513    127.33058    215.15311    5246.2954      27.0546      59.6399 -0.00019816875 -0.012634167 0.00036551782 0.0090019161 
  764000    341.77282    453.77176   -314.19907   -314.23605    245.65417    5330.2846      27.0546      59.6399 6.5468143e-05 -0.0021647343 -0.00054044555  0.004603907 
  765000    347.28121    460.99966    189.93596     189.7004    230.77768    5397.3577      27.0546      59.6399 -0.00074766155 0.0092302535 0.00061808526  0.014223664 
  766000    336.02196    446.14198    150.97344    150.95012    141.17334     5140.247      27.0546      59.6399 0.00051035344 0.0060284511 -0.00010090766 -0.014899123 
  767000    335.40586    445.20582    335.63676    335.34018    240.38514    5230.2929      27.0546      59.6399 -0.0005997187 5.075436e-06 -0.0003006405 0.0097523856 
  768000     337.4499    448.01562    354.99646    354.92157    242.37537    5262.6927      27.0546      59.6399 0.00016526857 -0.0054496932 -0.00011254771 -0.0035100455 
  769000    333.55428    442.64326    308.85891    308.32146    213.11056     5175.472      27.0546      59.6399 -0.0010573483  0.029632667 -0.00018462161  0.023850945 
  770000     335.1429    444.75461    -126.7395   -127.27214    121.59803    5107.5936      27.0546      59.6399 7.5458696e-05  0.027239663  0.000567292  0.017610106 
  771000     342.4717    454.70541    257.16912    257.14536    190.24136    5285.2692      27.0546      59.6399 0.00088950809  0.033391812 0.00063078253 0.0053447105 
  772000    344.37914    457.21696    248.17617    248.10374    112.58869    5235.9939      27.0546      59.6399 2.2726243e-05  0.040249407 7.6779045e-05 0.00084556674 
  773000    336.00589    446.06814   -68.006111   -68.150864    49.741775    5048.5763      27.0546      59.6399 -4.8389058e-05 -0.0095054318 8.1634253e-05 -0.0094794227 
  774000    336.79733    447.17654    83.723957    83.712331    98.021172    5108.6302      27.0546      59.6399 -0.00011493859  0.017354032 0.00021164544 -0.020208937 
  775000    340.69276    452.27167    61.734436    61.544684    52.822421    5121.3846      27.0546      59.6399 -0.0003521135  0.012393076 -4.8652121e-05 -0.0049120781 
  776000     339.7602    451.11544   -97.398598    -97.39873    34.624584    5089.3128      27.0546      59.6399 -0.00043060527 -0.0019069947 -0.00035663879 0.0019082023 
  777000    340.83427    452.51379   -41.951532   -42.015853    20.964728    5091.6322      27.0546      59.6399 -0.0011978461 7.1212181e-05 0.00022693324 -0.0054803423 
  778000    338.85905    449.91813    108.75681    108.75478    25.127344    5066.4091      27.0546      59.6399 0.00060080213   0.01886963 0.00026620685 0.00073332694 
  779000    340.05424    451.50067    349.79363    349.78152   -57.261253    5001.8014      27.0546      59.6399 0.00044647299 0.0039607281 0.00042596645  0.015796391 
  780000    343.33834    455.82396    70.256154    70.158089    48.059339    5155.9803      27.0546      59.6399 -0.00067810156 -0.0017915448 0.00037248295  0.035922525 
  781000      335.783    445.78922    156.61153    156.50614    176.44602    5171.9646      27.0546      59.6399 8.0120487e-05  -0.01295066 -0.00034715176  -0.02424704 
  782000     340.1135    451.37903     203.7082    203.23272    208.28394    5268.2283      27.0546      59.6399 -7.1628407e-05 0.0084516002 0.00043281576 0.0040358263 
  783000    334.00127    443.45754   -219.61984   -219.64658    119.33903    5088.3504      27.0546      59.6399 0.00021667818 -0.0022172312 0.00074978812 -0.017336056 
  784000    343.59326    456.20412   -384.57129   -384.57294    48.332994    5160.0465      27.0546      59.6399 -0.00052923774  0.023993038 7.7724712e-05  0.022212081 
  785000    340.53749    452.12161   -163.19638   -163.25637    117.50647    5183.7587      27.0546      59.6399 0.00061519378  0.012121138 -0.00033274175  0.010714611 
  786000    337.76357    448.44328   -195.43447   -195.48349    179.79894    5204.7828      27.0546      59.6399 -7.6421976e-05 -0.0087810798 -0.00043456286 -0.016696964 
  787000    346.10644    459.50998   -164.74119   -164.81456    230.14786    5379.2505      27.0546      59.6399 -0.0006597855 -0.004768535 -0.00024522253 0.00031712303 
  788000    336.34647    446.57294   -207.91872   -207.94182    123.22823    5127.1297      27.0546      59.6399 -6.8443139e-07 0.0073303254 0.00027640875 0.0003017972 
  789000    334.80955    444.34043   -559.33927   -559.80618    147.23697    5128.2733      27.0546      59.6399 -0.00020969084 -0.003870371 -0.00011169524 -0.016140573 
  790000    339.87008    451.06197   -157.84562   -158.30688    159.72667    5216.0496      27.0546      59.6399 -6.1872709e-05 -0.0028855772 0.00050979523 -0.019989614 
  791000    334.41668     443.9294   -110.31203   -110.52313    154.79568    5129.9872      27.0546      59.6399 -4.7492479e-05 -0.012483452 -3.5623342e-05  0.020326001 
  792000    343.18552    455.61585    154.47382    154.36368    150.94826    5256.5958      27.0546      59.6399 -0.00060963226 0.0026698422 0.00060955527 0.0062621119 
  793000    332.83525    441.92001   -172.57737   -172.57947    239.08221    5190.7464      27.0546      59.6399 0.0012610314  0.048577444 -0.00012474635 0.0076643851 
  794000    332.76658     441.3853    83.428508     82.40051    126.86627    5077.5088      27.0546      59.6399 -0.00012494828 -0.0041425298 0.00067126909   0.02976909 
  795000    341.22519    453.05347   -45.094245   -45.110818    124.25337    5200.7366      27.0546      59.6399 0.00045887213 0.0091860161 -0.00089729297   0.03065919 
  796000    345.38782    458.56336   -36.093567   -36.149544    222.37704    5360.7887      27.0546      59.6399 0.00054450053 -0.018428287 -0.00063573678 0.00089495336 
  797000    338.60237    449.43104   -318.64609   -318.98646     169.9598    5207.4227      27.0546      59.6399 0.00096516474 -0.015407294 5.5229801e-05  -0.01615627 
  798000      338.752    449.77308    -574.4388   -574.44756    300.98594     5340.675      27.0546      59.6399 -0.0004881439 -0.0029461899 -0.0003224056 -0.027553105 
  799000    341.02756    452.74017   -263.28599   -263.42029    245.38866    5318.9317      27.0546      59.6399 -0.00027489823  0.024711385 0.00019584697 -0.024908024 
  800000    331.64652     440.3424     164.0997    164.09926    248.60966    5182.5889      27.0546      59.6399 0.00042699427  0.020150752 5.770067e-05  0.010356208 
  801000     336.1703    446.23867   -95.555965   -95.811219    323.75692    5325.0375      27.0546      59.6399 0.00016579123 -0.0019447156 -2.0303444e-05 -0.0089937692 
  802000    335.18832    445.04116   -400.21652   -400.22588    139.11256     5125.784      27.0546      59.6399 -0.0010608989 0.0072663513 -0.00012143688 -0.029035171 
  803000    342.00126    454.04685    -242.4442   -242.54644    362.22211     5450.251      27.0546      59.6399 -0.00063840238 0.0058584946 0.00046647475  0.016839221 
  804000     339.4505     450.6992   -116.40043   -116.41222    343.75984    5393.8406      27.0546      59.6399 0.00037478058 -0.0094462779 -0.0015029206   0.01501864 
  805000    342.82132    455.15292   -119.66821   -119.73062    277.12438    5377.3537      27.0546      59.6399 -0.00039213756  0.012992722 -0.001003782 -0.0012851803 
  806000    341.65665    453.63205   -32.894778   -32.898122    275.93643    5358.8385      27.0546      59.6399 -0.00034898172 0.00024780135 -0.00011118593  0.033755995 
  807000    344.99837    458.05469    401.79946    401.76298    287.10045    5419.7181      27.0546      59.6399 -1.1548366e-05 0.0075926781 8.9419913e-05   0.01650037 
  808000     334.9067    444.63649   -25.505334   -25.585796    286.19967    5268.6812      27.0546      59.6399 0.00019643982  0.041684909 -0.00073758395 -0.0036843134 
  809000    341.96777    454.03357    -315.5628   -315.59292    268.26406    5355.7948      27.0546      59.6399 0.00011697513 -0.025867079 -0.00011673202 -0.0013612118 
  810000    347.46063    461.33874   -73.665938   -73.668195    267.44013    5436.6894      27.0546      59.6399 0.00026803092  0.031686263 -0.00061099842 -0.0086173261 
  811000    343.17298    455.62482   -122.36979   -122.42064    392.91892    5498.3799      27.0546      59.6399 0.00022401678 -0.0064765359 -0.00023331806  0.014002724 
  812000    334.89136    444.63968   -389.96493   -389.99089    302.50514    5284.7585      27.0546      59.6399 0.00032484445  0.014566055 0.00023748428  -0.02793584 
  813000    341.74327     453.6949   -186.28613   -186.41012    395.17544    5479.3662      27.0546      59.6399 -0.00052085749 -0.0071768526 -0.00045474689 -0.0026670703 
  814000    352.20884    467.60347   -265.97574    -266.0698    244.35045    5484.2398      27.0546      59.6399 -0.00083456254  0.011444523 0.00037691517 -0.0070939964 
  815000    338.87467    449.92948   -209.27925   -209.30299    351.19779    5392.7118      27.0546      59.6399 -0.00071193558 0.00027460904 0.00041052897  0.011768818 
  816000    338.05681    448.65344    10.633883    10.170376    237.77974    5267.1263      27.0546      59.6399 0.00014274022 -0.011604661 -0.0002019897  0.024619933 
  817000      341.252    453.06988   -176.18873   -176.24968    130.66178    5207.5439      27.0546      59.6399 -0.00075836627 -0.010421074 5.7434014e-05 -0.00042167994 
  818000     342.7275    454.99455   -322.93204   -323.07261    259.31587    5358.1494      27.0546      59.6399 -0.00056903395 0.0024092113 -0.00038691268 -0.027722019 
  819000    341.14741    452.81163    398.22592    397.88884    197.49826    5272.8243      27.0546      59.6399 0.0012223555  0.023089729 9.9987604e-05 0.0060562883 
  820000    337.82581    448.47185    129.97554    129.80144    195.19705     5221.107      27.0546      59.6399 -0.00022975634 -0.00022836595  0.001010439 0.0048685524 
  821000    334.29812     443.7243    287.09812    286.77676    219.22026    5192.6479      27.0546      59.6399 -0.00058769128 -0.014202149 -0.00011211785 -0.005392509 
  822000    338.42736    449.31491   -130.58233   -130.65383     74.10403    5108.9633      27.0546      59.6399 0.0002354534  -0.03168642 -0.00046184925 -0.014461831 
  823000    341.93033    453.97586    332.24327    332.19466    201.17414    5288.1479      27.0546      59.6399 0.0010033634 0.0013842292 0.00027996493 0.0078862446 
  824000    338.65274    449.58564    478.53863    478.40116    240.94783    5279.1602      27.0546      59.6399 0.00024148063 0.0075947072 -0.00021189726 -0.0018247747 
  825000    337.27974    447.82205    72.990903    72.990856     183.6655    5201.4513      27.0546      59.6399 0.00010407065 -0.013952127 0.00016535228 0.0021716745 
  826000    339.96241    451.37552    -359.2721   -359.29168    281.95171    5339.6483      27.0546      59.6399 0.00034911461 -0.027441984 0.00022638777 -0.018015234 
  827000    334.26457    443.71791    307.95632    307.72319    214.75654    5187.6851      27.0546      59.6399 0.00017948831 -0.040260836 7.1435981e-05   0.02026113 
  828000    331.13881    439.66697    -59.43206    -59.43554    182.67233    5109.0982      27.0546      59.6399 0.0006359549  0.013323647 0.00037140264 0.0062086792 
  829000    339.95999    451.37513    251.07681    251.06377     264.1148    5321.7754      27.0546      59.6399 0.00044068617 -0.020048248 -0.000485591 -0.0060812533 
  830000    337.41824    447.91841    133.54182     133.3393    252.18682    5272.0331      27.0546      59.6399 0.00056327066 -0.019780474 0.00028287669 0.0070709035 
  831000    338.56503    449.51019     317.0314    316.98878    243.02525    5279.9327      27.0546      59.6399 0.00016583548 -0.010675634 7.0240752e-05 -0.026936844 
  832000    340.20579    451.62529   -127.88393   -128.07323     116.7029    5178.0203      27.0546      59.6399 -0.00016906228 -0.0089588211 -0.00047133741  0.018391207 
  833000    337.13885    447.61099    136.57994     136.5244    293.60932    5309.2991      27.0546      59.6399 -4.1657822e-05   0.01280883 8.8600682e-05   0.02583163 
  834000    350.84503    465.78171    18.788737    18.669309    65.036771    5284.6365      27.0546      59.6399 -0.00043640016 -0.025599477 0.0004189881 -0.018372169 
  835000    341.62568    453.59237    22.325046    22.325013    195.54274    5277.9842      27.0546      59.6399 -8.4251377e-05 0.0067826873 0.00012056648   0.01516736 
  836000    336.75724    447.05082   -31.711671    -31.89094    101.58969    5111.6022      27.0546      59.6399 -0.00034050179  0.013819849 0.00088665714 0.0044977055 
  837000    344.24361    456.97142    519.40772    519.18357    225.72102    5347.1099      27.0546      59.6399 3.0024776e-05 0.0030572346 -0.00019023172 -0.028297648 
  838000    346.62803    460.07741    254.20056     253.8378    278.27793    5435.1404      27.0546      59.6399 -9.1997871e-05 -0.0095108361 -0.00037259124 -0.0052483374 
  839000    335.99201    446.05745    30.496376    30.369512    352.67616    5351.3042      27.0546      59.6399 -5.1238471e-05 -0.025391942 6.6979991e-05  0.017713634 
  840000    341.19264    453.01691    136.71344    136.71228    264.13099    5340.1299      27.0546      59.6399 0.00013860494 0.0032913761 0.0012558093  0.020310365 
  841000    348.81912    463.12139    409.79769    409.74666    279.32731    5468.7872      27.0546      59.6399 -0.00084847916 -0.0075704154 -0.00015790576 -0.009448793 
  842000    345.04774    458.11382    364.39503     364.3437    105.27875     5238.631      27.0546      59.6399 -0.0005042373 -0.0020388324 0.00024813189 -0.0084016305 
  843000    334.18263    443.69969   -218.49665   -218.52029    183.12262    5154.8322      27.0546      59.6399 -0.00023879145 0.0033378253 0.0001113374 -0.010694679 
  844000    331.46614    440.08223   -69.209839   -69.258088    276.68534    5207.9811      27.0546      59.6399 -0.00046071603 0.0011268468 0.00045793406 -0.024918049 
  845000    334.20042    443.72295   -230.15305    -230.1775    383.13472    5355.1089      27.0546      59.6399 1.9420837e-05 -0.023777815 -0.000449881 0.00063201948 
  846000    335.38384    445.24818    44.772989    44.642022    339.05093    5328.6312      27.0546      59.6399 4.6762012e-05  -0.00562279 -0.00032467276  -0.01949311 
  847000    340.64476    452.28981   -10.280351   -10.280743    287.68133    5355.5294      27.0546      59.6399 -0.00020237033 -0.015726125 0.00010249136 0.0027848823 
  848000    335.89566    445.93151     172.2364    172.11415    176.45745     5173.652      27.0546      59.6399 -0.00040983214  0.049818948 0.0006984985  0.021693832 
  849000    337.88294    448.59252   -38.183465   -38.253896    186.71732    5213.4771      27.0546      59.6399 0.00037460175 -0.024610404 -0.00011124271  -0.02125009 
  850000     335.3329    445.15426   -67.730999   -67.922753    174.12144    5162.9437      27.0546      59.6399 -0.00032726485 -0.0029077239 0.00068136035  0.002178287 
  851000    344.06744    456.81848    3.4809073    3.4440211    103.90659    5222.6746      27.0546      59.6399 -0.00097010535  0.077581745 0.00028342526 -0.024912097 
  852000    341.94321     454.0137   -13.888507   -13.889163    343.56765     5430.733      27.0546      59.6399 0.00043461177 -0.0073691952 0.0001703053 -0.0034155317 
  853000      340.833    452.52596   -439.69954   -439.73181    265.97446     5336.623      27.0546      59.6399 0.00053583379 -0.0083765341 -0.0004728088 0.0013421057 
  854000    342.46633    454.70333   -51.123678   -51.135752    196.49785    5291.4458      27.0546      59.6399 -0.0001427579 -0.010845284 0.00070441846 -0.024493919 
  855000    335.73839    445.72931    336.47005    336.36309    185.46704    5180.3219      27.0546      59.6399 -0.0002893788 0.0023003413 -0.00043811025  0.020928218 
  856000    339.17337    450.33164    229.02702    229.01616    144.78905    5190.7469      27.0546      59.6399 3.8383333e-05 -0.038728595 -0.00088096362 0.0076688567 
  857000    336.55206    446.85589     50.82296    50.822919    208.11593     5215.076      27.0546      59.6399 0.0002689538 -0.015112752 -0.00028044941  0.019321025 
  858000    344.07002    456.70535   -226.96404   -227.27051    312.33039    5431.1367      27.0546      59.6399 -5.7905519e-06 -0.020702672 0.00039449186 0.0048494654 
  859000    345.57795    458.82176   -62.941078    -62.98326    194.56537    5335.8055      27.0546      59.6399 -0.0014372841  0.024595503 -0.00045736306 -0.013722411 
  860000    335.51424    445.42176   -133.84916    -133.9791    11.170625    5002.6907      27.0546      59.6399 -0.00017034704  0.011458598 0.00046302736 -0.0082243841 
  861000    339.91963    451.23333      -106.95   -107.16708     113.2361    5170.2962      27.0546      59.6399 0.00037997333 -0.020951878 -0.0007055056 -0.0055592202 
  862000    336.39235    446.61423    108.35716    108.28867    183.70586    5188.2898      27.0546      59.6399 0.00092744917 -0.00024592742 -0.00058568711  0.012615934 
  863000    343.31661    455.83474    511.16315    511.15674    149.35526     5256.953      27.0546      59.6399 -0.000153168 -0.0015552822 -0.00079764301 -0.0080186032 
  864000    341.81902    453.84025    411.08671    411.06627    200.84915    5286.1669      27.0546      59.6399 -0.00048314062 -0.018515194 0.00051029687 -0.034777369 
  865000    344.44555    457.26159     143.9491    143.77591    184.47972     5308.873      27.0546      59.6399 3.4501238e-05 -0.0091779047 0.00024850675  0.012993833 
  866000    331.69169    440.37371    93.310622     93.24391    292.67623    5227.3274      27.0546      59.6399 0.00070859126  0.015236931 0.00015199655 -0.033339859 
  867000     341.7116    453.68985   -226.45045   -226.48888    232.32554    5316.0452      27.0546      59.6399 5.5059927e-05  -0.01706855 8.3657302e-05 0.0048615518 
  868000    341.29474    453.06075    168.04092    167.82756    114.76667    5192.2847      27.0546      59.6399 -1.2589821e-05  0.016057537 -7.1551602e-05 -0.0056008189 
  869000    343.03584    455.34303   -74.505102   -74.786579    85.395337     5188.816      27.0546      59.6399 -0.0002903357  0.022426206 -5.9127707e-05 0.0013694764 
  870000    348.57752    462.80774    281.24455    281.21003     148.0316    5333.8971      27.0546      59.6399 0.00031455193  0.028144368 -0.00092910095 -0.0025150646 
  871000    331.02608    439.51838    13.029274    13.028322    95.238084    5019.9868      27.0546      59.6399 0.00029284209 0.0070739993 -0.00026670944 -0.0038977747 
  872000    339.40535    450.63697    -129.4365   -129.45356    164.53952    5213.9486      27.0546      59.6399 0.00031580751 -0.0074583623 0.00089797698  0.034994586 
  873000     336.2397    446.42883    67.665672    67.637164    189.45112     5191.764      27.0546      59.6399 -0.00047106711 -0.016350087 -5.8717766e-05 0.0049733706 
  874000    340.64286    452.11584   -82.624936   -83.021883    51.114035    5118.9339      27.0546      59.6399 3.8110258e-05 -0.025001491 0.00060097085   0.01709233 
  875000    344.08951    456.83875   -235.23974   -235.29749    186.97312    5306.0694      27.0546      59.6399 -0.00031742173 -0.029822919 -0.00046333136   0.01621927 
  876000    347.51181    461.40005    356.93692    356.91927     174.5846    5344.5953      27.0546      59.6399 -6.7949618e-05 -0.0060334189 -0.00051992038 -0.010302134 
  877000    341.22373    453.04784    29.707491    29.682365    203.57924    5280.0408      27.0546      59.6399 0.0001358427 0.0077161536 0.00048985176 -0.0039571023 
  878000    341.16948    452.98605    340.13028    340.12885    130.13052     5205.785      27.0546      59.6399 -0.00018355626 -0.0035017457 -0.00087712235 -0.0066341846 
  879000    340.34965    451.89217   -43.276025   -43.289852     22.69813    5086.1558      27.0546      59.6399 -0.00045458266 -0.0095506092 -0.00020651715 -0.013289236 
  880000    341.00443    452.72383   -109.73536    -109.8364    180.11594    5253.3148      27.0546      59.6399 0.00013875566  0.022551454 0.0001066392 -0.017650056 
  881000    341.26716    452.98737     5.076212    4.7778521    130.05059    5207.1582      27.0546      59.6399 -0.00083113919 -0.010594803 -0.00047552148 0.0040366828 
  882000    338.95342    450.03597   -126.48811   -126.50738    140.92366    5183.6093      27.0546      59.6399 -0.00017197418  0.029879675 0.00079770348  0.008359013 
  883000    337.59938    448.13382   -135.80413   -136.06471    270.63678     5293.178      27.0546      59.6399 0.00049117117 -0.030321067 0.00013265601 -0.0015151498 
  884000    351.23207    466.34112   -28.128034   -28.142191    116.34626    5341.7041      27.0546      59.6399 0.00033019371 -0.010816954 -0.00057481357 -0.016308546 
  885000    340.98333    452.65488    325.78109    325.58534     309.3417    5382.2267      27.0546      59.6399 9.5532874e-05 -0.020554305 0.00035587945 0.0037108431 
  886000    336.70582    447.04723     93.49465    93.464991    264.24317    5273.4907      27.0546      59.6399 0.00092140673  0.056186753 -0.00018279791  0.006937725 
  887000    345.64655    458.92393   -309.01159   -309.02812    197.67727     5339.938      27.0546      59.6399 0.0011223267  0.040853268 0.00012090734 -0.0047889806 
  888000    338.31094    449.14794     -87.0949   -87.195077    161.79994    5194.9272      27.0546      59.6399 4.4478234e-05 -0.0077726096 5.5600239e-05 -0.0068902672 
  889000    337.21629    447.71683   -283.05811   -283.10667    266.85164    5283.6936      27.0546      59.6399 -0.00024588084 0.00034140162 0.00021543533  0.013735499 
  890000    340.03455     451.4514     -142.284    -142.3496    257.13852    5315.9083      27.0546      59.6399 9.925244e-07 0.0015100302 -0.0012864836  0.048620802 
  891000    339.00493    450.06338    78.878428    78.764384    96.957562    5140.4094      27.0546      59.6399 -7.5804972e-05 0.0065190465 0.00016306705 -0.0066568155 
  892000    340.88386    452.47451    2.9842279    2.6767735    216.43686     5287.842      27.0546      59.6399 0.00086916819 -0.010305413 -0.00013469936 0.0012953896 
  893000    335.64971    445.65777    70.895854    70.895748    370.30556    5363.8412      27.0546      59.6399 8.3837909e-05 0.0097572837 0.00076261615 -0.014266607 
  894000    344.50204    457.40865    91.046635    91.040143    318.19196    5443.4255      27.0546      59.6399 0.0005793862 0.0089803634 -0.0012680773 -0.00086038313 
  895000    341.64054    453.57382   -257.17499   -257.26357    171.33651     5253.999      27.0546      59.6399 0.00044878896  0.025896082 -2.8908765e-05 -0.0013625048 
  896000    334.44731    444.05606     -214.719   -214.73117    320.22703    5295.8742      27.0546      59.6399 -0.00071085234 0.0020203893 9.9956429e-05  0.027513968 
  897000    339.34779    450.56244    194.58358    194.57088    294.57439    5343.1272      27.0546      59.6399 0.00061174844 -0.0018521247 0.00060957282 -0.015612073 
  898000    338.04418    448.80174    331.63017     331.5485    229.01563    5258.1742      27.0546      59.6399 -0.00034629008 -0.007622953 0.00054733594  0.040930601 
  899000    337.82738    448.54906    33.599358    33.599011    248.79603    5274.7294      27.0546      59.6399 0.00026123635   0.01424383 0.0003119727 0.00066826012 
  900000    337.53635    448.15841   -114.22346   -114.23358    187.52905    5209.1326      27.0546      59.6399 -0.00024896772  0.013903776 -2.1344663e-05 -0.0088176543 
  901000    342.75688    455.09191   -29.282545   -29.288136    194.00501    5293.2755      27.0546      59.6399 0.00023156242 -0.00015379685 -0.00034364438 -0.031566707 
  902000    343.38114     455.9135   -129.12527   -129.14766    240.27057    5348.8283      27.0546      59.6399 -0.00069480609 -0.0074756554 -0.00044454909 -0.010787479 
  903000    335.46312    445.30014    4.9172056    4.6629397    180.79627    5171.5559      27.0546      59.6399 -0.00029253841 -0.014698747 -0.00072545948 -0.022928345 
  904000    336.36478    446.58979    21.547599    21.507226    314.17497    5318.3488      27.0546      59.6399 -9.6794583e-05  0.031265547 -0.00034672948 -0.017335904 
  905000    340.53384    452.07071    78.296545    78.130038    168.22423    5234.4221      27.0546      59.6399 -6.5720044e-05 -0.039010928 2.1015645e-05 0.0067382074 
  906000    336.10994    446.19652   -182.63787   -182.80524    271.46064    5271.8432      27.0546      59.6399 -0.00050553458 -0.0062827622 5.9064443e-05 -0.009249446 
  907000    341.52256    453.45377   -71.926025   -71.929941     195.9324    5276.8397      27.0546      59.6399 6.3711713e-05 -0.0016480195 -3.7745715e-05  0.022483991 
  908000    339.99483    451.41798   -252.78613   -252.80703    155.94274    5214.1216      27.0546      59.6399 0.00035311209  0.021644672 -0.00011232386 0.0065889387 
  909000     335.6243    445.57541    66.190386    66.077852     345.0053    5338.1628      27.0546      59.6399 -0.00048540484  0.012529792 0.00058573703 -0.013298851 
  910000    337.55071    448.18072   -25.913036    -25.91565     274.1303    5295.9475      27.0546      59.6399 0.0001601621 0.0012220601 0.00067294935 -0.0082302503 
  911000    342.29553    454.45902   -93.643504   -93.696126     299.1928    5391.5997      27.0546      59.6399 -5.0448533e-05 0.0076597283 9.5627023e-05 -0.011821715 
  912000    348.53755    462.72339   -410.47143   -410.57829    267.67295    5452.9437      27.0546      59.6399 -0.00045789618  0.016031356 -0.0010481696 -0.020816856 
  913000    340.32795    451.78182   -95.334568   -95.536991    277.01664    5340.1515      27.0546      59.6399 -2.1669748e-06  0.018086331 -0.00040297174  0.025185548 
  914000    343.90661     456.6193   -169.85882   -169.86249    263.91912    5380.2945      27.0546      59.6399 -0.00024470708 -0.011364531 -0.00015607053 0.0045360584 
  915000    334.95669     444.7222    160.15578    160.12003    255.47537    5238.7007      27.0546      59.6399 0.00013267595 0.0033055966 0.00055543954 -0.0098786185 
  916000    336.78441    447.15256    131.99492    131.96751    198.65212    5209.0689      27.0546      59.6399 -0.00032953084 -0.0064965202 -9.1927853e-05 -0.019674349 
  917000    342.73687    454.99422   -8.3447661   -8.5148701      308.766    5407.7389      27.0546      59.6399 6.904651e-05 -0.008199928 -0.00012876001  0.026194056 
  918000     340.1001    451.54008   -31.266504   -31.328315    287.72096     5347.466      27.0546      59.6399 7.0092674e-05 0.0059451179 -0.00021308652  0.010840697 
  919000    350.20684    464.98599    97.693608    97.693594     257.4477     5467.553      27.0546      59.6399 -7.7222576e-05  0.010289893 -0.00028927767  0.017057887 
  920000    347.65474    461.56435    266.60886    266.53232    300.23293    5472.3699      27.0546      59.6399 0.00058936012  -0.01547298 4.6150222e-05 0.0075606785 
  921000    344.82775    457.83218    392.84647    392.81931    309.96163    5440.0409      27.0546      59.6399 0.00075074129  0.016933867 -0.00045380997 0.0019069858 
  922000    341.00827    452.74016    388.13984    388.06477    266.12918    5339.3853      27.0546      59.6399 0.00028103822 -0.0050379865 0.00030166932 0.0035657871 
  923000    338.64977    449.49339   -214.57796   -214.91967    184.28717    5222.4552      27.0546      59.6399 -0.00063853724 -0.0090921615 0.00095113516 0.0066955854 
  924000    335.17037    445.01307    -5.689387    -5.708571    240.01157    5226.4158      27.0546      59.6399 -0.00051773129 -0.015524739 0.00052559502  0.012267006 
  925000    337.96758    448.73169   -320.36483    -320.3733    306.66578    5334.6849      27.0546      59.6399 8.0806682e-06  0.002483468 -2.9515727e-05 -0.012747181 
  926000    333.20113      442.406    174.65297    174.65132    217.19401    5174.3015      27.0546      59.6399 -0.00013342772 -0.013458965 0.00029500695  0.026392412 
  927000    329.90492    438.02453   -572.28158   -572.29465    165.35877    5073.4278      27.0546      59.6399 -0.00031402687 -0.019477958 0.00010985201  0.001416401 
  928000    343.54156    456.13499   -261.60368   -261.60645    109.29223    5220.2366      27.0546      59.6399 -0.00024186079 -0.016355001 -0.00014223108 -0.014249266 
  929000    342.98384    455.38054   -145.06111    -145.0961    186.43913    5289.0861      27.0546      59.6399 0.00043078926 -0.018316805 7.3705834e-06  0.015357724 
  930000    339.33066    450.54212   -17.235678   -17.242739    152.47754    5200.7754      27.0546      59.6399 -0.00057945205 -0.0091490427 0.00051164825 -0.00076587731 
  931000    334.90923    444.65752   -188.85444   -188.89405    123.38348    5105.9028      27.0546      59.6399 -1.2573618e-05  0.032853107 -0.0014499898  0.030430888 
  932000    339.35055    450.57158     32.40205    32.402043    247.67785    5296.2716      27.0546      59.6399 -0.00086925171 4.3437537e-05 -0.00025845194 0.0017071039 
  933000    337.25851    447.79297   -200.23674   -200.23887    175.93068    5193.4008      27.0546      59.6399 8.3082881e-05 -0.0040157685 9.6424902e-05 -0.0017751509 
  934000     341.9404    453.99259   -439.09997   -439.14082    228.52425    5315.6478      27.0546      59.6399 -0.000475333 -0.023958034 0.00022303057 -0.015920088 
  935000    340.33813    451.71834    -354.4983   -354.87882    302.34897    5365.6353      27.0546      59.6399 -0.00036654795  0.040685531 0.00021805957 0.0016434576 
  936000    341.89601    453.93759   -27.256339   -27.288063    103.94098    5190.4041      27.0546      59.6399 -0.0001665187 -0.0022814337 -0.00012811831   0.02167146 
  937000    337.93865    448.69006   -371.11095   -371.12685    100.22517    5127.8137      27.0546      59.6399 -0.00044454636 -0.0047995391 0.00056922488 0.0072099779 
  938000    335.67566    445.67175   -12.393115   -12.440554    160.22826    5154.1498      27.0546      59.6399 -0.00040858244 -0.011014416 0.00020696236 -0.011416049 
  939000    340.56558     452.1763    77.379405    77.359673    220.15204    5286.8221      27.0546      59.6399 -0.00041683328 -0.0059032564 0.00064759695 -0.024362915 
  940000    343.98746    456.70085   -103.42175   -103.48506    71.808435    5189.3865      27.0546      59.6399 0.00015285172  -0.01789665 -0.0011285255  0.011776631 
  941000     343.3638    455.88624    304.15607    304.12385    149.67927    5257.9791      27.0546      59.6399 -4.0868954e-05 -0.0055910796 1.9860488e-07 -0.012135462 
  942000    348.07345      461.906   -226.63526   -227.20748     145.5031    5323.8694      27.0546      59.6399 -7.942594e-05 -0.010875503 -0.00025520255  0.018040806 
  943000    334.16087    443.51371   -181.17058   -181.55755    294.99311    5266.3789      27.0546      59.6399 -0.00020036579 0.0065060891 -0.00073254603  0.044455826 
  944000    345.31385    458.37032   -170.79268   -171.06799    101.42532    5238.7365      27.0546      59.6399 -0.00036872079  0.003142025 0.00015484253 0.0066594869 
  945000    339.30677    450.51329    213.09863    213.09824    237.79328    5285.7358      27.0546      59.6399 -0.00024800854 -0.022191087 0.00018530812 -0.0014894654 
  946000    339.06093    450.18662    112.04572    112.04474    240.01092     5284.296      27.0546      59.6399 -0.00060211793  0.024126119 0.00034872047 0.0073557075 
  947000    341.93013    453.99631     126.5914    126.59068    265.56541    5352.5362      27.0546      59.6399 -0.00073690108  0.017492096 0.0004731187  0.024302755 
  948000    339.59065    450.88343    372.96334    372.94725    255.22983    5307.3957      27.0546      59.6399 0.0010354898 0.0021876648 0.00023438725  0.023957201 
  949000    348.24805    462.38401   -94.854314   -94.857086    217.36222    5398.3261      27.0546      59.6399 8.9824589e-05 0.0041976664 -0.00022919486 -0.016519501 
  950000    343.03113    455.22997   -189.29648   -189.82501    235.38916    5338.7398      27.0546      59.6399 -0.00026461489 -0.010557884 0.00049283695 -0.018277238 
  951000    336.16375    446.33423    264.04176    264.02768    262.56781    5263.7508      27.0546      59.6399 6.228631e-05  0.030078539 -0.00038869642  0.016524061 
  952000    343.69268    456.32763    518.43816    518.41688    240.05411    5353.2467      27.0546      59.6399 -0.00033499244  0.020832291 -0.00030090641 0.00054151284 
  953000    334.65155    444.31984   -221.76617   -221.79548    172.46943    5151.1552      27.0546      59.6399 0.00072300427 -0.0064620291 1.3904227e-05 -0.003196193 
  954000    345.63405    458.88269   -98.688686   -98.762243    210.77481    5352.8497      27.0546      59.6399 -0.00041384646  0.010482311 -0.00037689278 -0.0022419413 
  955000    346.72324    460.32016    281.17696    281.08331    236.96814    5395.2471      27.0546      59.6399 -0.00032347881 5.9245873e-05 -0.00054496768  0.027126021 
  956000    338.06114    448.78038    128.69793    128.51476    219.36927    5248.7802      27.0546      59.6399 -0.00077690976  0.017967738 -6.2278513e-05 -0.0067191071 
  957000    336.68749    447.02895    154.86949    154.85386    178.57833    5187.5531      27.0546      59.6399 -6.2665022e-05  0.019129958 -0.00068557677 0.0094751868 
  958000    342.17598    454.31479    212.89518    212.87611    110.43161    5201.0599      27.0546      59.6399 0.00041293648  0.020803874 0.00025235105  0.019474264 
  959000     337.0629    447.53311    99.964544    99.962096     276.3503    5290.9103      27.0546      59.6399 0.00056376165  0.049594517 8.0011906e-05 0.0048860094 
  960000    340.21826    451.72347   -38.472593   -38.473092    216.30013     5277.803      27.0546      59.6399 -0.00039669662 0.0058087169 0.00022373903 0.0066926471 
  961000    329.94647     437.9952    -36.29375   -36.502269     229.3044    5137.9916      27.0546      59.6399 0.00037786851 0.0097884414 -0.00049089394 -0.00079160275 
  962000    342.67259    454.96566   -158.53612   -158.57487    172.82238    5270.8389      27.0546      59.6399 -0.0005421992  0.016068924 -6.5825677e-05 0.0039179224 
  963000    348.76866    463.07352    -92.03165   -92.038434    129.45603    5318.1652      27.0546      59.6399 -0.00042690628 0.0055075253 -0.00021510793 -0.0023660663 
  964000    341.47255    453.36581    34.078907    34.025106    118.78853    5198.9518      27.0546      59.6399 -4.4393831e-05  0.016533434 -0.00016691626 -0.005817628 
  965000    340.42149    451.98979    515.25326    515.24463    141.62249    5206.1489      27.0546      59.6399 0.00033403235 -0.021301807 -0.0010041913  0.034756316 
  966000    344.74766    457.67382    173.40465    173.25718    148.49976    5277.3875      27.0546      59.6399 -1.0645677e-05 -0.021306199 -0.0005652177 -0.032328785 
  967000    338.48834    449.30662   -156.38901   -156.66695    192.74903    5228.5155      27.0546      59.6399 0.00035661224 -0.025881485 -9.7202803e-05 -0.0070770952 
  968000     338.0435    448.69679    -403.3393   -403.66165    65.741369    5094.8899      27.0546      59.6399 -0.00019154573 -0.024239014 0.00011944607 -0.0017986754 
  969000     332.9005    442.00571   -53.914621   -53.918871    195.91645    5148.5513      27.0546      59.6399 -0.00024141358 -0.010466445 6.0148899e-05 -0.0045431384 
  970000     331.3699    439.97514   -121.39729   -121.39768    173.42174    5103.2857      27.0546      59.6399 0.00017051442 -0.0017725351 -0.00064950335  0.056683917 
  971000    340.37752     451.9005   -60.172156   -60.252281    138.03067    5201.9029      27.0546      59.6399 0.00063862733  -0.01075679 -0.00011934284 -0.017953257 
  972000     335.4955    445.44587    229.03815    229.02152    50.170762    5041.4122      27.0546      59.6399 -0.00026531706  0.001365098 -0.00017503349 -0.0056271751 
  973000     339.3051    450.49991    170.36402     170.3378      57.3183    5105.2359      27.0546      59.6399 -0.00017411768   0.02006299 -0.00063794491  0.011240016 
  974000    343.05369    455.48631   -42.625608   -42.630507    211.82101    5315.5073      27.0546      59.6399 -0.0001448826  0.014746979 -0.00027735395  0.021733607 
  975000    340.29914    451.76559    60.796468    60.645004    186.58487     5249.291      27.0546      59.6399 -5.5224206e-05 -0.010076415 0.00087165364 -0.0066848752 
  976000    340.27087    451.71672    156.55152    156.37384    168.53085    5230.8164      27.0546      59.6399 -0.00079673299 -0.026878325 -0.00025347343 -0.013607938 
  977000    335.85065    445.74559   -50.459046   -50.873131    153.34736    5149.8724      27.0546      59.6399 0.00019258568 -0.0019423314 -0.00053332463 0.0048925656 
  978000    346.87101    460.54924   -25.153057    -25.17067    269.91241    5430.3898      27.0546      59.6399 -0.00024202317  0.026545561 -0.00029000535  0.014762352 
  979000    337.48833    448.09903    169.06362    169.06362    180.70558    5201.5947      27.0546      59.6399 -8.6282015e-05  0.013525814 -0.0002027105 -0.016128201 
  980000    343.08008    455.51939   -329.98286   -329.99226      124.263    5228.3418      27.0546      59.6399 -0.00017730963 -0.023116913 -0.00039175289 -0.0028165056 
  981000    339.46284    450.65671   -35.405911   -35.553856    180.74199    5231.0063      27.0546      59.6399 -0.00028299237 -0.0053093554 0.00018035678 0.0011912159 
  982000    343.76555    456.37597    425.60753    425.47426    162.74814    5277.0249      27.0546      59.6399 0.00010063978 0.0022820163 0.00024261177  0.042062112 
  983000    339.98457    451.35566    88.815614    88.682055    120.39267    5178.4189      27.0546      59.6399 -0.00055996012 -0.001278175 -0.0005365317 0.0007513455 
  984000    339.65183    450.92758   -3.8404949    -3.942356    175.86762    5228.9437      27.0546      59.6399 -0.00017772158 -0.036473988 0.00032116671 -0.0097120706 
  985000    336.51351    446.74571    20.519915    20.383441    148.61986    5155.0063      27.0546      59.6399 0.00023387265   0.04309612 4.3103262e-06  -0.01063359 
  986000    340.24402    451.64674   -224.15641    -224.4135    199.74473    5261.6309      27.0546      59.6399 -0.00088077757  -0.01440749 -0.00034889713  0.016969841 
  987000    347.32469    460.90249    40.069774    39.475955    187.41494    5354.6417      27.0546      59.6399 6.886715e-05 -0.024291564 -2.3986395e-05 -0.0099070795 
  988000     334.0629    443.55058    10.859957    10.859144    369.45276     5339.381      27.0546      59.6399 -0.00035383461 -0.0029290061 5.4243963e-05 -0.040099121 
  989000    338.47864    449.39151    78.191962     78.14015    264.74152    5300.3637      27.0546      59.6399 3.5032635e-05  0.020609889 0.00071125543  0.015542993 
  990000    345.02144    458.10107    6.0892363    6.0891987    331.06782    5464.0287      27.0546      59.6399 0.00097222452 -0.016833913 -0.00012005399 -0.033508542 
  991000     341.7938    453.81542    51.919345    51.918908    186.92656    5271.8692      27.0546      59.6399 0.00037033378  0.012306976 0.00029813114 0.0021564248 
  992000    338.53235     449.4527   -296.68477   -296.76003     324.4395    5360.8608      27.0546      59.6399 -0.00017878356 -0.020384133 -0.00025221373 -0.021952758 
  993000    335.48204    445.42792   -88.443337   -88.460136     231.3807    5222.4218      27.0546      59.6399 0.00011660844 0.0026676858 0.00057068857 -0.0018002176 
  994000    342.29822    454.48534    1.9689809    1.9689638    247.23872    5339.6857      27.0546      59.6399 0.00023257786 0.0011757474 3.8215853e-05 -0.024683334 
  995000    331.35451    439.95479    89.298246    89.298047    329.26483    5258.8998      27.0546      59.6399 0.00014455312 -0.017547098 -0.00025695749 0.0057012358 
  996000    339.26697    450.44197    45.789868    45.746733    289.57875    5336.9292      27.0546      59.6399 -0.00019258293 -0.019562082 -0.00052900818 -0.0045165897 
  997000    345.82215    459.06757   -85.944495   -86.168097    357.18543    5502.0587      27.0546      59.6399 0.00058434247 -0.012509395 -0.00052820688 -0.014884028 
  998000    338.75655    449.75619   -223.83087   -223.89267    332.43367    5372.1903      27.0546      59.6399 -3.8677917e-05 -0.00057898473 0.00065863889   0.02569088 
  999000    336.29554    446.47536   -192.54032   -192.63272    308.57613    5311.7199      27.0546      59.6399 -0.0010177518 0.0087382486 -0.00024716158 -0.013777007 
 1000000     338.5158    449.45842    9.9354675    9.9243051    270.86646    5307.0415      27.0546      59.6399 -0.00017915155   0.01439795 -0.00075321826   0.01832038 
 1001000    335.73918    445.72548   -159.18124   -159.29949    212.25802    5207.1247      27.0546      59.6399 -9.6304365e-05 -0.021374085 -0.00011410855   0.01140593 
 1002000    341.32488    453.19232   -122.62478   -122.62634     275.4937    5353.4601      27.0546      59.6399 0.00011248557 0.0055375958 -0.00045412062 -0.015454379 
 1003000    342.95012    455.35091   -119.78429    -119.7843    316.44711    5418.5926      27.0546      59.6399 3.708632e-05 0.0090691371 -0.00042180722 0.0021762088 
 1004000    328.77265    436.49205   -163.95134   -164.03175    313.23959    5204.4636      27.0546      59.6399 -0.00083976815 -0.0042891314 0.00012839822  0.030777749 
 1005000    340.09465    451.53847   -226.43189   -226.48068    265.83871    5325.5027      27.0546      59.6399 -0.00045925996  0.044586007 -0.00044736501 -0.0015683111 
 1006000    332.67345    441.65858    101.71474    101.60485    475.98665    5425.2438      27.0546      59.6399 0.00023374213  0.005272752 0.00034348517 0.0045025764 
 1007000    336.19821    446.31386   -58.423658   -58.590702    173.74802    5175.4438      27.0546      59.6399 5.8145846e-05  0.039097097 0.00081670497 -0.0082643102 
 1008000      340.958    452.70399    103.39875    103.39442    246.31653    5318.8246      27.0546      59.6399 -0.00055030457 -0.0094442285 -0.00019002657 -0.0088054057 
 1009000    341.81009    453.83213   -120.72354   -120.73534    165.67791    5250.8628      27.0546      59.6399 -0.00042695404 -0.011317112 -0.00047310859 -0.0060961621 
 1010000    344.17269    456.89703    228.44856    228.27014    211.09165    5331.4254      27.0546      59.6399 -0.00056393345 -0.0035025891 -0.00044542232  0.017943068 
 1011000    339.67521    450.98818   -95.953211   -95.986704    147.45877    5200.8827      27.0546      59.6399 0.00010783408 -0.00096457774 0.00014090189 -0.0063590712 
 1012000       334.74    444.42516   -405.03883   -405.09616    232.58722    5212.5888      27.0546      59.6399 1.2845226e-06  0.048659893 9.8261033e-05  -0.00703397 
 1013000    336.57354    446.77316    13.194559    12.937201    304.97177    5312.2514      27.0546      59.6399 -0.00085957316  0.040073249 -4.7472685e-05  0.025778563 
 1014000    332.44182    441.38591   -275.55595   -275.58519    111.27447    5057.0856      27.0546      59.6399 -0.00056072897  0.017857871 -0.00018739298 0.00044302089 
 1015000    333.30305    442.51831    81.999558    81.944668    229.24216    5187.8659      27.0546      59.6399 -0.00020062731  0.026129861 0.0018174158  0.048690644 
 1016000    340.23206    451.73718   -122.98137   -122.99253    271.92466    5333.6329      27.0546      59.6399 0.00065907881 0.0043781468 0.00036853501  0.012814988 
 1017000    336.68378    447.02661    1.6515347    1.6418557    133.85001    5142.7697      27.0546      59.6399 8.7678788e-05 -0.00083037282 -0.00014582158  0.023359026 
 1018000    341.60508    453.52082    60.774644    60.672383    205.75665    5287.8915      27.0546      59.6399 -0.0001365667  -0.02222237 -0.00017452395 -0.016520242 
 1019000    341.22552    453.03787   -207.26095   -207.31461    165.42414    5241.9123      27.0546      59.6399 0.00013508147 -0.030850088 0.0010014927  0.019657159 
 1020000    342.10168    454.22206    100.60076    100.59538    288.88234    5378.4053      27.0546      59.6399 -0.00040387114 -0.018178173 9.3708555e-06  0.011697561 
 1021000    345.19447    458.22145    142.48149    142.22848    263.83896    5399.3741      27.0546      59.6399 -0.00017543909 0.0015354847 -0.00010801705 0.0038685793 
 1022000    338.31225    449.18951   -257.33437   -257.34243    221.75729    5254.9041      27.0546      59.6399 -1.4289983e-05 -0.017621722 0.0014054897 -0.0075624545 
 1023000    336.71908    446.95852    88.163411    87.887829    158.40488    5167.8497      27.0546      59.6399 -0.00055233476  0.013627254 -0.00015233044 0.00050919182 
 1024000    334.51502    444.10355    80.846814    80.736513    253.02182    5229.6764      27.0546      59.6399 0.0002478041 0.0054845891 -0.00067811773  0.020747389 
 1025000    338.26021    449.10341   -259.26093   -259.30829    255.30831    5287.6808      27.0546      59.6399 0.00068313185  0.020356672 0.00061025007 0.0016165676 
 1026000    338.70499    449.66677    229.46393    229.35365    110.12894    5149.1185      27.0546      59.6399 -0.00053302995 -0.024837954 -0.0006614861  0.018430749 
 1027000    342.06082    454.16486   -259.32446   -259.33668    321.88764    5410.8028      27.0546      59.6399 -0.00030673679 -0.015592246 -0.00021785383 -0.026721409 
 1028000     341.4657    453.32387    159.34976       159.22    219.90991    5299.9713      27.0546      59.6399 -8.2186999e-05 0.0041714504 7.8255146e-06 0.0060907762 
 1029000    340.09104    451.50492    190.82981     190.7145    271.13558    5330.7458      27.0546      59.6399 0.00081857542 -0.00090953611 -0.00041470283   0.03424633 
 1030000    344.43856    457.29293    81.922378    81.843172     228.6371    5352.9263      27.0546      59.6399 -0.00060333483  0.007905144 0.00025597311  0.009331061 
 1031000     343.7571    456.42225   -20.523171    -20.52343    318.23546    5432.3864      27.0546      59.6399 0.00035433617 -0.002027547 -0.00043552068 0.0024458588 
 1032000    333.90609    443.34271   -15.271698   -15.271739    252.52527    5220.1206      27.0546      59.6399 -6.210724e-06 0.0019622648 -0.0002961691 -0.0026652533 
 1033000    343.01703    455.37463    4.1230452    3.9724367    232.64952    5335.7903      27.0546      59.6399 -0.00020599031  -0.01160453 0.0003386955 -0.013534745 
 1034000    343.33279     455.8322    -49.95883   -50.020807    255.87463    5363.7131      27.0546      59.6399 -0.00081219892  0.010446938 0.00016386874 -0.015283538 
 1035000    334.33932    443.82861    -114.7494   -114.95604    186.61083    5160.6514      27.0546      59.6399 4.0173012e-05 -0.014250535 -0.0001618988 -0.0050593036 
 1036000    343.52226     456.0956   -31.848859   -31.883442    347.98145    5458.6386      27.0546      59.6399 0.00040319368 -0.0029066594 -0.00031419476 -0.022011391 
 1037000    338.12835    448.84842   -311.51542   -311.74766    257.08976    5287.5007      27.0546      59.6399 -9.0830397e-08  0.014716731 0.00026371915 -0.0042326647 
 1038000    346.11265    459.54878   -483.95641   -483.95909    249.78815    5398.9832      27.0546      59.6399 -1.827015e-05 0.0059568938 -0.00033030017 -0.0038039321 
 1039000    340.44726    452.02182   -36.030475   -36.044174    258.30859    5323.2184      27.0546      59.6399 0.00048437844 -0.0030382153 0.00027155201  0.010593663 
 1040000    341.13423    452.93722    87.274913      87.2688    255.76152    5330.8915      27.0546      59.6399 -0.00013233491  0.016681308 0.00010577222 -0.030664496 
 1041000    338.22711    449.01961    240.14444    240.00488    210.41367    5242.2938      27.0546      59.6399 -0.00091885991 0.0018440023 -0.00049039922  0.031448028 
 1042000     345.8606    459.17658    54.239718     54.15019    261.30986    5406.7551      27.0546      59.6399 -0.00010484629  0.037412314 -0.0001859675 -0.0029561276 
 1043000     339.6783    451.00364   -86.011694   -86.018903    206.59932    5260.0691      27.0546      59.6399 -0.00021261413 0.0047862355 0.00047349138  -0.01787141 
 1044000    348.42449    462.61355   -249.36228   -249.37602     225.8564    5409.4453      27.0546      59.6399 0.00013778906 0.0020104041 0.00022273328 -0.0097451678 
 1045000    332.97072    442.07313   -202.32071   -202.38468    239.46141    5193.1411      27.0546      59.6399 0.00034995715 -0.011496265 0.00037157287 0.0088512262 
 1046000    338.89389    449.95209    19.970399    19.939933    248.57425    5290.3742      27.0546      59.6399 0.00024210406 -0.018457228 0.00066371612  0.028164916 
 1047000    344.42118    457.27923     280.5271    280.46956    308.00523     5432.036      27.0546      59.6399 -0.00064717439 0.0059977173 -6.1185054e-05 0.0002689925 
 1048000    339.33669    450.52367    86.323561    86.255296     306.5464     5354.934      27.0546      59.6399 -1.9428734e-05  0.018305699 0.00021967726   0.02240558 
 1049000    339.05657    450.17892   -462.69464   -462.70004     154.7835    5199.0037      27.0546      59.6399 9.2283423e-05 -7.0941317e-05 0.00027564553 -0.026628688 
 1050000    342.76162    455.09099    157.69971    157.67743    228.04131    5327.3823      27.0546      59.6399 -0.00034058045  0.003323442 -0.00099974888 0.0058536657 
 1051000    342.34861    454.55171    62.819939    62.818691    143.13566    5236.3322      27.0546      59.6399 -0.00039611986  0.010462197 0.00032014035  0.034314771 
 1052000    344.43536    457.31737   -255.82746   -255.84031    183.88496    5308.1266      27.0546      59.6399 2.5011457e-05  0.012918548 0.00016197385 0.0069417459 
 1053000    342.69635    454.85837   -194.43485   -194.79474    319.42952    5417.7995      27.0546      59.6399 -0.00050160614 -0.0021638319 -0.00063854929 -0.0057804814 
 1054000    339.89571    451.29405   -205.38582   -205.38899    221.58173     5278.286      27.0546      59.6399 5.8016102e-05 0.0010543611 -0.00034854109   0.01006737 
 1055000    344.10909    456.88085   -243.50242   -243.52293    264.00849    5383.3961      27.0546      59.6399 -6.5150116e-05  0.010519044 -0.00045654523 -0.030457713 
 1056000    346.44248    459.95082    -348.7509   -348.83662    112.15038    5266.2525      27.0546      59.6399 0.00066500116  -0.02894486 0.00014989411 -0.0086262736 
 1057000    335.00789    444.75948    270.10936     270.0026    160.19717    5144.1842      27.0546      59.6399 -0.00024757843 -0.014269956 -0.0010680126  0.051720028 
 1058000    344.26782    457.09298      202.309    202.29166    257.01017    5378.7593      27.0546      59.6399 0.00019972035   0.01900082 0.00035900531 0.0053669887 
 1059000    338.60509    449.58077    293.94745    293.94504    230.69204    5268.1955      27.0546      59.6399 0.00015278672 -0.0096621653 -0.00066855251  0.019521586 
 1060000    340.42642    451.83957    99.029087    98.657844    195.50553    5260.1053      27.0546      59.6399 0.0013138578  0.044150288 -0.0004724342  0.038581752 
 1061000    341.44271    453.17543    186.88961     186.4871    223.49888    5303.2182      27.0546      59.6399 0.00030705532 -0.012682966 -0.00022598513 -0.0024243165 
 1062000    343.93255    456.65027    217.02546    217.01377    99.810126    5216.5713      27.0546      59.6399 7.1751459e-05 -0.0033910864 -0.00029470924 -0.00097922693 
 1063000     335.0151    444.79647     55.72586     55.68254    206.91056    5191.0048      27.0546      59.6399 -0.0011387528  0.026411478 -0.00030974419 0.0063463996 
 1064000    340.78565    452.46873   -39.762316   -39.781539    137.15733    5207.1015      27.0546      59.6399 0.00029289762 -0.023371715 -0.00032828395 -0.033356924 
 1065000    340.07225    451.52873    25.669639    25.667129    157.76848    5217.0991      27.0546      59.6399 0.0010601779 -0.0073738985 0.00047403612  0.017716512 
 1066000    340.35799    451.90445    66.319741     66.30872    144.70272    5208.2845      27.0546      59.6399 -0.00012283893 -0.0078815558 -0.00048624644 -0.0045802793 
 1067000    339.25178     450.4197   -295.14626   -295.19425    117.45202    5164.5764      27.0546      59.6399 -6.0010864e-05  -0.01207405 0.00073586649  0.020471852 
 1068000    329.68056    437.72871   -7.4679046   -7.4761948    238.65594    5143.3872      27.0546      59.6399 5.0673166e-05  0.025514516 0.00067769608  0.036420196 
 1069000    333.62743    442.96702    163.31092     163.2977    108.87958    5072.3293      27.0546      59.6399 -0.00010355037 0.0053474211 0.00015003537 0.0058695767 
 1070000    341.55292    453.47657    11.893013    11.848581    67.231419    5148.5904      27.0546      59.6399 0.00023941455 -0.0071147099 0.00021835205 -0.0079617351 
 1071000    342.46431     454.6529    -385.7378   -385.86032    163.05968    5257.9776      27.0546      59.6399 -0.00035989465  0.016603084 -0.00040786448 -0.012267832 
 1072000    338.63433    449.58721   -1.8285112   -1.9058008    73.542712    5111.4811      27.0546      59.6399 -9.8477139e-05   0.02643925 0.00052752688  0.012901206 
 1073000    331.22656    439.73383   -94.528614   -94.646958    111.99331    5039.7247      27.0546      59.6399 -4.4593515e-06 -0.0034581173 -0.0003772799 0.0020395582 
 1074000    341.52234     453.3028    33.986827    33.634388    42.380187    5123.2842      27.0546      59.6399 -0.00022564983 0.0011923792 -0.0015290531  0.018219398 
 1075000    345.20018    458.29625     180.8713    180.77379     168.9483    5304.5683      27.0546      59.6399 -0.00084026784  0.012474095 -0.00033130723  0.011519596 
 1076000     340.1683    451.49881    225.77274    225.40604    238.96908    5299.7287      27.0546      59.6399 -0.00078015759  0.013270336 -0.00056171937  0.029213144 
 1077000    331.69407    440.23154   -229.05229   -229.45517    184.56842     5119.255      27.0546      59.6399 -0.00047447671 0.0044674365 0.00059253782 0.0039453635 
 1078000    343.98834    456.72939   -207.61055   -207.61057    316.93059    5434.5218      27.0546      59.6399 -0.00016918972 -0.037320564 -3.485332e-05  0.007514075 
 1079000     338.6008    449.25521    249.75325    249.01098    259.58516    5297.0248      27.0546      59.6399 0.00043911737 0.0030720302 0.00016503262 -0.00049396269 
 1080000    342.29421    454.37726    43.158308    42.920631    237.24725    5329.6345      27.0546      59.6399 -0.00045650748 -0.034798933 0.00036553842 -0.0013501222 
 1081000    335.09037    444.90133   -74.505752   -74.537692     296.0389     5281.253      27.0546      59.6399 0.00047193227  0.032273358 -0.00045655528 -0.011128364 
 1082000    348.47346     462.6723    12.124162     12.09595    222.14401    5406.4614      27.0546      59.6399 -0.00015005523 -0.022788277 0.00019107128 -0.010845515 
 1083000    337.13871    447.60864    279.99568    279.93513    261.14797    5276.8357      27.0546      59.6399 0.00023902519 -0.0074544563 -0.00018192022  0.021972068 
 1084000    341.75539    453.76456    467.62716    467.62706    250.87655    5335.2477      27.0546      59.6399 -0.00016117008  0.016180446 0.0004185758 -0.0032067669 
 1085000    337.79618     448.4281   -103.14558   -103.32988     312.0057    5337.4748      27.0546      59.6399 -0.0011344184 0.0086953142 -0.00054934627 -0.0080915148 
 1086000    342.22291    454.31674    34.378756    34.220046    185.54381    5276.8704      27.0546      59.6399 -0.0009966682  0.019315007 -0.00083188524 -0.017020389 
 1087000    336.20478    446.39259   -336.34342   -336.34855    155.48853     5157.282      27.0546      59.6399 8.7954245e-05 -0.0017747421 -0.00021556354 -0.011609643 
 1088000    342.91202    455.25595   -92.726318   -92.828923    217.81363    5319.3922      27.0546      59.6399 0.00062439316   0.01786113 0.00018625114 -0.023565106 
 1089000    338.05762    448.85158   -18.600379   -18.608056    329.48576    5358.8443      27.0546      59.6399 -0.00064628462 -0.015046444 -0.0002793155  0.016799203 
 1090000    337.93063    448.68591    -288.3455   -288.34641    258.20443    5285.6738      27.0546      59.6399 -0.00025146245 -0.017117738 0.0001702016 0.0068144001 
 1091000    340.75894    452.43676   -333.62834   -333.63946    176.60213    5246.1488      27.0546      59.6399 0.00016785662  0.027508769 -0.00033556121 0.0014208879 
 1092000    349.22215    463.61588    87.399111    87.254114    311.73554    5507.1913      27.0546      59.6399 0.00041628956   0.01536024 -0.0003102235  0.010769032 
 1093000    338.88871    449.93681    -120.5366    -120.5865    238.48055    5280.2034      27.0546      59.6399 0.00058054812  0.012593285 -0.00044709467 0.0064197212 
 1094000    339.00621    450.01106    270.92827    270.68926     140.9932    5184.4642      27.0546      59.6399 -0.0002435474 -0.038890469 4.449084e-05 -0.0045541746 
 1095000    336.42606     446.6834    89.636635    89.624589    247.26784    5252.3533      27.0546      59.6399 -0.00055031424  0.022931566 0.00034097559 -0.0079455415 
 1096000     342.3439    454.46652    38.626046      38.4422    280.10735    5373.2339      27.0546      59.6399 -0.00046228981 0.0027195387 -6.000428e-05  0.041082613 
 1097000    332.28683    441.18157   -407.55363   -407.57949    283.18298    5226.6882      27.0546      59.6399  2.64693e-05 0.0018214255 0.00030990011 -0.022372789 
 1098000    337.33474    447.89369   -95.348701   -95.351944    224.47748    5243.0816      27.0546      59.6399 -0.00043686399 -0.0019908723 -3.2699734e-05 -0.0054316393 
 1099000    337.09487    447.57547    112.74327    112.74061    216.33046     5231.366      27.0546      59.6399 3.4224937e-05 0.0039250933 9.3504436e-05 -0.00081204239 
 1100000    340.20771    451.69019    -73.82001   -73.865101    170.53325    5231.8793      27.0546      59.6399 -0.00071894954  0.016074891 0.00065957773 -0.0070816221 
 1101000    339.27527    450.31649     -54.1886   -54.547471    136.32389    5183.7978      27.0546      59.6399 9.0896993e-05 -0.0031082496 -0.00050044032 0.0025536684 
 1102000    338.11681    448.80372    -100.6852   -100.98537     176.1878     5206.427      27.0546      59.6399 -0.00038525845 -0.022375013 5.5099304e-05   -0.0276415 
 1103000      343.773    456.40543    422.38157    422.29355    212.65327    5327.0408      27.0546      59.6399 -0.00045167169  0.013989154 -0.00045835626 0.0071901128 
 1104000    341.22051    453.04244   -92.682537   -92.710233    291.64984    5368.0634      27.0546      59.6399 4.1519605e-06 -0.00072137551 -0.00034837395 -0.0057345558 
 1105000    336.05857    446.19751   -98.354936   -98.362246    185.40354    5185.0217      27.0546      59.6399 -0.0005973002 0.0053506572 0.00041981906 -0.012509592 
 1106000    338.57371    449.52247   -128.41597   -128.45685    90.657979    5127.6946      27.0546      59.6399 -0.00049873139 -0.0042372313 -0.00033399021 0.0064942636 
 1107000    338.04606    448.82625    180.08913    180.05836    162.47338      5191.66      27.0546      59.6399 -0.00087965963 0.0087739604 0.00016952951 -0.002097974 
 1108000    341.54771    453.47995   -54.452537   -54.473132    158.85963     5240.141      27.0546      59.6399 7.0232938e-05 -0.047168574 0.00050206866 -0.015321405 
 1109000    339.96301    451.36801    467.61589    467.57712    333.38561    5391.0911      27.0546      59.6399 -8.7815595e-05 0.0024025437 -0.00017071856 -0.015014586 
 1110000    340.84545     452.5515   -28.001084   -28.012495    175.52499    5246.3588      27.0546      59.6399 0.00045795264  0.049726656 -0.00072754825 -0.0087894525 
 1111000    333.75315    443.13776     339.3985     339.3941    92.714534    5058.0346      27.0546      59.6399 -0.00040811247 -0.008499651 8.1854268e-05  0.012349546 
 1112000    341.05572    452.79909    -51.25749   -51.341981    80.028685    5153.9907      27.0546      59.6399 -0.00086323694  0.023779075 -3.2889248e-05 -0.014430064 
 1113000    341.96165    453.73062    72.882776    72.170713    190.18191    5277.6217      27.0546      59.6399 0.00012775082  0.019084156 3.1710677e-05  0.014165087 
 1114000    346.31435     459.8171   -152.90031   -152.90181    178.21947    5330.4153      27.0546      59.6399 2.1684536e-05 -0.010024132 8.813478e-05 -0.028831398 
 1115000    334.77974    444.49447    471.47351    471.45448    225.81962    5206.4124      27.0546      59.6399 -0.00037609404  0.012772117 3.9566208e-05  0.009162495 
 1116000     337.8816      448.594    309.96077    309.89786    136.66021    5163.4001      27.0546      59.6399 -0.00028933703  0.015505477  0.000903296  0.012663058 
 1117000    340.59846    452.19683    84.177117    84.103866    94.779598    5161.9389      27.0546      59.6399 0.00049430642  0.028893245 0.00030049293 -0.021233389 
 1118000    344.27965    457.07324   -230.82146    -230.9208   -10.539617    5111.3855      27.0546      59.6399 0.00012066021  0.019975044 4.9878039e-05 -0.0014770107 
 1119000    343.07442    455.50006    154.53819    154.50146    220.94485    5324.9395      27.0546      59.6399 0.00020502094 -0.0079863293 0.0003439699 -0.0064150232 
 1120000    343.48691    456.06334    262.89548    262.89483    119.54471     5229.676      27.0546      59.6399 -0.00052589073 0.0034937683 -0.0002872081 -0.0061963623 
 1121000    336.11341     446.2514   -102.48556   -102.53667    151.32102    5151.7552      27.0546      59.6399 0.00021049064 -0.0026868502 0.00038878648 -0.026806635 
 1122000    338.97775    449.89077    281.76942     281.3396    223.03823    5266.0858      27.0546      59.6399 0.00063270627 0.0038714374 0.0011379613  0.036972388 
 1123000    337.49128    447.90332    132.68891    132.22717    285.86545    5306.7984      27.0546      59.6399 0.00047068047 0.0010828466 0.00011098915 0.0058999977 
 1124000     333.5424    442.77994    11.113088    10.928286    296.61126    5258.7959      27.0546      59.6399 -0.00056614926  0.010539849 -0.00027274496 -0.0086356586 
 1125000    338.00563    448.66026   -51.159539   -51.450094    296.31483       5324.9      27.0546      59.6399 -0.00033100024 0.0072390908 -0.00042307506  0.020335788 
 1126000    334.97256    444.75234   -142.87548   -142.89027    379.86367    5363.3252      27.0546      59.6399 0.00041638259 -0.024984056 -0.0010842378  0.003789049 
 1127000    338.23321    449.07222    -407.3691   -407.40569    223.05612    5255.0269      27.0546      59.6399 -1.340669e-05 -0.010143234 -0.00024346391 -0.011008096 
 1128000     346.2985    459.78411    118.52732    118.49818    197.15933    5349.1194      27.0546      59.6399 -0.00031684336 -0.0058114098 0.00065317523  0.018753302 
 1129000    332.32367    441.20697   -390.71479   -390.79507     225.5959    5169.6493      27.0546      59.6399 0.00063400618 0.0093675903 -0.00062224546 -0.014978699 
 1130000    339.56078     450.8472    291.96796    291.95982    210.49248    5262.2139      27.0546      59.6399 -0.00053745282 -0.018804625 2.175241e-05 -0.0067880915 
 1131000    342.34526    454.53317   -6.8859915   -6.9198389    265.16403    5358.3108      27.0546      59.6399 0.0004106123 -0.025621524 6.0778015e-06  0.012029174 
 1132000     336.1272     446.2876   -228.38537   -228.39506    335.95779     5336.597      27.0546      59.6399 -0.00029024104 0.0087451338 -0.00082320589 0.0069971659 
 1133000    342.02977    454.12763    235.40259    235.39963    255.12286     5343.576      27.0546      59.6399 -0.00026089935 -0.011357647 -6.8531382e-05 -0.014352834 
 1134000    343.49409    455.94741    245.40566    245.11479    328.66419    5438.9024      27.0546      59.6399 -0.000495583 -0.00045612757   -0.0010261  0.014054283 
 1135000    346.20341    459.54278   -353.92147   -354.21679    115.45033    5265.9957      27.0546      59.6399 0.00045949715 -0.011321419 -1.5235054e-05 -0.029685551 
 1136000    342.92071    455.30848    59.723851    59.716041    438.42897    5540.1368      27.0546      59.6399 -9.1210456e-06  0.064863771 0.00010291987 -0.0051651245 
 1137000      335.453    445.36325    -46.14939   -46.226586    282.07012    5272.6792      27.0546      59.6399 0.00069251775 -0.0089129977 0.00042938102 -0.016422421 
 1138000    347.23566    460.95176   -124.11884    -124.3253    264.35707    5430.2594      27.0546      59.6399 -0.00058754533 0.0047160551 0.00016113255  0.012210939 
 1139000    330.23234    438.45441   -141.04661   -141.07092     223.6437    5136.5839      27.0546      59.6399 -1.6750423e-05 -0.030825193 0.00011425591  0.012380347 
 1140000    336.94566    447.34479   -40.786839   -40.864807    334.42968    5347.2453      27.0546      59.6399 -0.00017510943   0.01913795 0.00039663334 0.0050384737 
 1141000     341.8963    453.72297   -209.12468   -209.65375    263.84383    5350.3114      27.0546      59.6399 -5.2421523e-05 -0.0031312131 -0.00037460182  0.019011281 
 1142000    343.84907    456.45234    -39.98984   -40.202953    304.56205    5420.0813      27.0546      59.6399 -0.00046580693  0.013414502 0.00014528612  0.014820651 
 1143000    331.87612    440.60074   -15.328985   -15.437002    163.26465    5100.6597      27.0546      59.6399 -0.00010549295 -0.0086081083 -0.00026351763 0.0095632695 
 1144000     341.3974    453.21944    231.53038    231.36883    220.49497    5299.5401      27.0546      59.6399 0.00027452238  0.055063263 -0.0015465972  0.015467675 
 1145000    341.08867    452.86236   -348.41999   -348.45934    186.80005    5261.2523      27.0546      59.6399 -2.8860096e-06 -0.007739297 -0.00019862832 0.0059727819 
 1146000     334.5421    444.18241    -146.1758   -146.18683    101.17996    5078.2373      27.0546      59.6399 0.0007271444 -0.0011573114 0.0001645932  0.041978119 
 1147000    338.43247    449.34687   -237.57044   -237.58371    249.85631    5284.7916      27.0546      59.6399 -0.00011232861 -0.014356018 -0.00028197133 -0.003315479 
 1148000    341.28339    453.12426     179.2692    179.23764    218.38895     5295.738      27.0546      59.6399 0.00032315579 -0.0058119262 -0.0015408651  0.023144843 
 1149000    335.57508    445.55447   -158.23032   -158.24014    160.22643    5152.6517      27.0546      59.6399 0.00082037379 -0.0094416582 2.7981714e-05  0.012710201 
 1150000    342.55363    454.75454    -71.31665   -71.478392    277.27464    5373.5214      27.0546      59.6399 0.00026830676 -0.017095674 0.00038488704 0.0021679711 
 1151000    342.38611    454.56287    6.1899186    6.0993114    168.30427    5262.0588      27.0546      59.6399 0.00016828166  0.016653701 -5.2135604e-05 0.0033734802 
 1152000    336.99052    447.40664   -50.047831   -50.120531     138.0999     5151.583      27.0546      59.6399 0.00059312154 0.00022863253 -4.0267205e-05 -0.017077552 
 1153000    340.09417    451.55309   -123.64694   -123.66046    27.266119    5086.9229      27.0546      59.6399 1.9477437e-05 -0.0046032268 -0.00016788654  0.022260178 
 1154000    337.77305    448.47512    276.02799    276.02346    172.90191     5198.027      27.0546      59.6399 -0.00052580768 -0.0076245091 -0.00051502577 -0.0042776958 
 1155000    336.65148    446.96882    182.40245    182.35831    203.02022    5211.4594      27.0546      59.6399 -0.00056732275   0.01495621 5.1583869e-05 -0.014401927 
 1156000    341.94852    453.97065    132.66146    132.54492    188.27929    5275.5236      27.0546      59.6399 0.0002724963  0.011659502 -0.00081366188 0.00063451302 
 1157000    342.16858    454.28916   -141.00021   -141.05585    271.23574    5361.7539      27.0546      59.6399 0.00045457797  0.012950806 -0.00034229296 0.00077214491 
 1158000    340.22536    451.72204   -126.86037   -126.88597    82.021398    5143.6299      27.0546      59.6399 9.2728354e-05  0.029720676 0.00060367348 -0.013151893 
 1159000    346.84472    460.52183    350.10811    350.10783    252.65766    5412.7439      27.0546      59.6399 -0.0003639628 -0.038235494 -0.0002207519  0.016175384 
 1160000    339.90104    451.30245   -12.598574   -12.598678    62.911206    5119.6947      27.0546      59.6399 0.00061545179 -0.0010813216 0.0014365795 -0.0058426418 
 1161000    339.54434    450.82227    241.43499    241.41966    173.94915     5225.426      27.0546      59.6399 0.00048657039 0.0059500349 -0.00024843003  0.019065085 
 1162000    337.44451    448.01926    244.12898    244.07904    238.81163    5259.0489      27.0546      59.6399 -5.5281876e-05  0.018942752 -0.00070536092 -0.021082392 
 1163000    344.80714    457.81473   -58.375824   -58.380049    237.34805    5367.1207      27.0546      59.6399 -0.0014874339  0.024067954 0.00027659457 -0.0025113873 
 1164000    337.05277      447.509   -234.79162   -234.81874    271.32009    5285.7293      27.0546      59.6399 -0.00030660896  0.022998033 0.00026429967  -0.02153383 
 1165000    334.04279    443.46521     213.2423    213.10581    309.02213    5278.6512      27.0546      59.6399 -0.00019295158 -0.0018595576 -0.00065037965  0.012578171 
 1166000    341.35912    453.22633    1.9704294    1.9423749    300.28479    5378.7606      27.0546      59.6399 0.00014483557 -0.012841402 -0.00068612301 -0.0046006508 
 1167000    347.22592    461.01994   -2.8074159   -2.8262492    130.96092    5296.7183      27.0546      59.6399 -0.00071270416  0.012574723 0.00034107115  0.023131622 
 1168000    344.74871    457.66714    358.97147    358.80529    107.21851     5236.122      27.0546      59.6399 -0.00042579196  0.016013575 -8.0017884e-06   0.02052228 
 1169000    342.15816    454.29815    -95.61507   -95.617922     176.3339    5266.6971      27.0546      59.6399 0.00035694804 -0.0032276262 -0.00058815638 -0.0097592021 
 1170000    332.56589    441.56152    137.55532    137.55126     207.3698    5155.0267      27.0546      59.6399 -0.0003617345  0.017526062 7.8035234e-05  0.022820228 
 1171000     335.9816    446.07254    214.91545    214.85546    191.52238    5189.9955      27.0546      59.6399 -0.00049366273 -0.00010896865 -0.00013357357 -0.0033266167 
 1172000    338.34187    449.21574    130.89048    130.85213    162.79771    5196.3851      27.0546      59.6399 0.00019093541 0.0085807435 0.0008367617   0.05376922 
 1173000    331.80381    440.42328     44.83964    44.543246    224.45592    5160.7751      27.0546      59.6399 0.00063938965 0.0017768537 0.00029548285  0.023868826 
 1174000    333.71758     443.0222   -158.02652   -158.18898    275.44543    5240.2363      27.0546      59.6399 0.0002534088 -0.0089026292 -0.00073336532 -0.026335859 
 1175000    343.37114    455.90981   -48.073572   -48.073813    261.55328    5369.9623      27.0546      59.6399 -0.0002595484 -0.012736083 0.00037275579 -0.011131738 
 1176000    337.01333     447.4094   -80.375208   -80.511567    224.17426    5237.9967      27.0546      59.6399 0.0006189955 -0.012637328 -0.0003995985 -0.0068468134 
 1177000    340.02893    451.44241    182.52828    182.45914    200.63234    5259.3185      27.0546      59.6399 -6.9779429e-05  -0.02019379 -0.0002686927 -0.020142987 
 1178000    332.97728    442.10303    446.90936    446.89439    213.94454    5167.7218      27.0546      59.6399 -0.00034197251  0.014016664 0.00044075095 -0.0034701706 
 1179000    334.13696    443.64296   -77.865937   -77.880496    144.03291    5115.0629      27.0546      59.6399 0.00078364557 0.0073723203 0.00014684516  0.023162253 
 1180000    342.28191    454.46326    75.719844    75.718846     280.4488    5372.6531      27.0546      59.6399 -0.0012435955  0.032268746 0.00052373883 -0.0033280262 
 1181000    335.88182    445.96037   -56.831235   -56.844234    197.38852    5194.3772      27.0546      59.6399 -0.00029206305 -0.010851952 0.00022738078 -0.0075628241 
 1182000    342.53361    454.79364    7.1806168     7.170808    238.03168    5333.9806      27.0546      59.6399 0.00032193943 0.0027220239 0.00034112342 -0.019133064 
 1183000    334.06058    443.49765    292.23005    292.11394    214.92666    5184.8204      27.0546      59.6399 3.2385686e-05 -0.016117237 -0.0002070854 -0.015638075 
 1184000    341.47956    453.22234    29.370421    28.963261    280.51085    5360.7784      27.0546      59.6399 -0.00059215426  -0.00472775 0.00023602976  0.018707428 
 1185000      330.884    439.27028   -42.318159    -42.45665    142.02966    5064.6647      27.0546      59.6399 0.00012249621 -0.019003283 0.00052866203  0.017153652 
 1186000    332.72066    441.74308    58.441226    58.381807    200.49023    5150.4496      27.0546      59.6399 -0.00042890591 -0.021701886 0.00066362394  0.013831502 
 1187000    342.06694    454.17711    -100.8803   -100.88299    228.51075     5317.517      27.0546      59.6399 0.00010662592 -0.0047782152 -0.00048210601 -0.011374319 
 1188000    347.29102    461.09259     72.75242    72.701694    108.30775    5275.0337      27.0546      59.6399 -6.7319823e-05  0.016135129 7.249324e-05 -0.0034139341 
 1189000    341.91404    453.88085   -253.01318   -253.23153    155.44168     5242.173      27.0546      59.6399 -0.00055589013  0.017561176 0.00011200345  0.013489913 
 1190000    341.94644    453.98536   -43.282787   -43.358918    104.99088    5192.2043      27.0546      59.6399 2.656521e-05  0.041074815 0.00026541408 -0.00010638912 
 1191000    335.17728    445.03015   -54.971113   -54.972035    295.81361    5282.3208      27.0546      59.6399 -0.00057765526  0.013614172 2.4278776e-05 -0.016127063 
 1192000    339.57889    450.86191    247.63005    247.60032    215.92886    5267.9197      27.0546      59.6399 -0.0003923707  0.033641493 -0.0010184034 0.0031239902 
 1193000     337.6519    448.27289   -24.277719   -24.377916    87.521066    5110.8436      27.0546      59.6399 3.802167e-05 -0.016358724 0.00065036305 5.8390188e-05 
 1194000    338.92644    450.00685    361.21344    361.20969    418.71293    5460.9971      27.0546      59.6399 -0.0006827744 -0.00039391214 -0.00023502288  0.018786998 
 1195000    335.38164    445.28959    29.371515    29.343105    157.23754    5146.7849      27.0546      59.6399 -0.00042230184 0.0045096591 -0.00039446591 -0.0016797906 
 1196000    332.15051    440.90132    333.51074     333.2553    7.9691989    4949.4464      27.0546      59.6399 0.00070104844  0.022418249 7.8995343e-05 -0.014276131 
 1197000    342.59804    454.88266    198.65901    198.65722     178.8941    5275.8015      27.0546      59.6399 -0.00033533167  0.019932125 0.00011762192 -0.0083573194 
 1198000    342.20282    454.34986     457.2718     457.2514    254.21872    5345.2463      27.0546      59.6399 -0.00094688541  0.031628779 0.00070824954  0.033836151 
 1199000    334.24212    443.78376   -56.102934   -56.114775    266.35555    5238.9501      27.0546      59.6399 0.00025303084 -0.00096779681 0.00049241828  0.020837048 
 1200000    336.13375    446.27925    38.832487    38.783351    130.60437    5131.3412      27.0546      59.6399 0.00031734765  0.026765173 -4.3878274e-05 0.0098609812 
 1201000    344.38228    457.24925    133.21701    133.20959    214.65898     5338.111      27.0546      59.6399 0.00061998621 -0.010253958 0.00098130737  0.039956401 
 1202000    337.66017    448.31488   -224.14695   -224.17543    101.90936     5125.355      27.0546      59.6399 -0.00026517819  0.011261856 0.00079482189 -0.00061848436 
 1203000    339.68386     451.0121   -68.366999    -68.37172    335.27753    5388.8301      27.0546      59.6399 -0.00020213801 -0.013915885 -6.3593836e-05 -0.0066600763 
 1204000    341.04356    452.63105   -259.94656   -260.38237    222.41533    5296.1963      27.0546      59.6399 -0.00084998253  0.010233594 7.4068256e-05 -0.0054943442 
 1205000    338.99858    450.04465    -152.8477   -152.98557    252.24433    5295.6017      27.0546      59.6399 -4.9013887e-05 -0.020150279 -4.0237265e-05 -0.0061066124 
 1206000    347.93709    461.96998   -132.73094   -132.73641     210.7252    5387.0629      27.0546      59.6399 0.0010613101  0.065959657 -0.0011297043  0.027540057 
 1207000    348.36977    462.54086   -170.30171    -170.3155    154.37962    5337.1544      27.0546      59.6399 -5.006293e-05 -0.014660149 0.00046748516 0.00058400894 
 1208000    331.66986    440.34078   -147.19152   -147.26737    306.44052    5240.7669      27.0546      59.6399 -0.00070933948  0.042029819 0.00083272017 -0.002728993 
 1209000    345.57745    458.83508   -240.82488   -240.83472    231.78924     5373.022      27.0546      59.6399 -0.0002576369 -0.016946405 0.00034523903 -0.0016150007 
 1210000    336.99778    447.41375   -198.05677   -198.13528    192.49723    5206.0883      27.0546      59.6399 0.00029707487 0.0075060902 -5.2632868e-05 -0.016543193 
 1211000    333.64174    442.96772   -407.66624   -407.72179    349.76743      5313.43      27.0546      59.6399 -6.646113e-05  -0.01890354 -0.0003843015 0.0093935354 
 1212000    338.62775    449.60393   -86.817875   -86.836275    135.71634    5173.5568      27.0546      59.6399 0.00072066433 -0.021906811 6.3738616e-05  -0.02718064 
 1213000    341.37579    453.24102   -239.43112   -239.47641    73.784125    5152.5079      27.0546      59.6399 0.0001328501  0.041056798 -2.3700209e-05 -0.012807315 
 1214000    333.55917    442.84115   -34.326565   -34.421288     225.1295    5187.5636      27.0546      59.6399 -5.7935431e-05  0.014567221 -3.3564485e-05  0.016446159 
 1215000    343.35199    455.87036    250.93387     250.9012    247.11693    5355.2411      27.0546      59.6399 0.00066703844  0.022750943 1.2010924e-05  0.033145522 
 1216000    338.82378    449.75842   -165.76427   -166.02738    155.75835    5196.5153      27.0546      59.6399 0.00090655824 -0.0062144649 0.00024033595 -0.015192548 
 1217000     341.4243    453.28166    160.62691    160.52665    240.26036    5319.7058      27.0546      59.6399 0.0009039043 -0.007282855 0.00030337173  0.015592312 
 1218000    338.24689    449.10169   -48.212546   -48.222998    102.12321    5134.2976      27.0546      59.6399 0.00071189556 -0.019212121 1.5160317e-06 -0.034317466 
 1219000    337.97917     448.6949    152.60134    152.47217    177.24126    5205.4328      27.0546      59.6399 6.7904662e-05 -0.005785299 0.00028196581  -0.01107354 
 1220000    337.48167    448.08439    398.57228    398.55888    380.58384    5401.3738      27.0546      59.6399 -0.00044802952  0.018579836 -0.00034241582 -0.0039408567 
 1221000     346.2431    459.70141   -50.156217   -50.206501    274.38135    5425.5171      27.0546      59.6399 9.7241809e-05  0.013363818 0.00057284518 0.0027304805 
 1222000    343.28817     455.7604    39.954462    39.863447    333.33654    5440.5112      27.0546      59.6399 -9.8108985e-05  0.042466821 0.00052700579  0.036614224 
 1223000    339.05365    450.17095   -29.793138   -29.808018    288.50582    5332.6826      27.0546      59.6399  0.000435454 -0.011429277 -1.2842654e-05 0.0053381528 
 1224000    342.90129    455.21019    18.737627    18.562121    323.41113      5424.83      27.0546      59.6399 0.00099120375 0.0040236225 -0.00014548137 0.0033827646 
 1225000    332.80689    441.86555    403.03586     402.9949    294.91835    5246.1606      27.0546      59.6399 0.00025879905   0.05630889 -0.0004116261  0.021828312 
 1226000    338.29256    449.15844    -182.9535   -182.97293    266.55118     5299.405      27.0546      59.6399 -0.00081076291  0.034141377 0.0004350268 -0.0054429011 
 1227000    338.30747    449.15582   -54.213604   -54.284913    364.42645    5397.5022      27.0546      59.6399 0.00036429413 0.0073493574 -0.00033943889 -0.0087025904 
 1228000    338.18231    449.00623   -147.55075   -147.58366    336.49536     5367.709      27.0546      59.6399 0.00067806606 -0.020252248 0.00035815503   0.01091939 
 1229000    339.57365    450.83768    14.774656     14.70497     276.2795    5328.1924      27.0546      59.6399 0.00013263863  0.010811104 0.00030748084 -0.012204303 
 1230000    340.21874    451.72416   -136.55289   -136.55327    312.55788    5374.0679      27.0546      59.6399 -0.00038415496 -0.0060166106 -2.9482509e-05 -0.0099178128 
 1231000    335.05386     444.8654    18.006889    18.003948    237.72978    5222.4008      27.0546      59.6399 -0.0001773442  0.021467958 -0.00047490656  -0.00227947 
 1232000     337.5972    448.23992    273.20402    273.19553    227.44977    5249.9586      27.0546      59.6399 -0.00095039088 -0.0020826318 -0.00028916531 -0.011546406 
 1233000    341.41909    453.30162    131.81954    131.78146    265.19328    5344.5612      27.0546      59.6399 -0.00030317331  0.015629228 0.00042413791  0.006054914 
 1234000     341.0771    452.71822   -86.002185   -86.339413    199.69289     5273.973      27.0546      59.6399 0.0002852987  0.022389121 -0.00035478364 -0.0066953885 
 1235000    339.11813    450.22164    425.56148    425.46582    292.09132    5337.2274      27.0546      59.6399 -9.7671288e-05  0.026710672 -7.6668305e-06 -0.013498982 
 1236000    341.17446    452.98266    434.55148    434.52693    224.48305    5300.2116      27.0546      59.6399 -0.00046623807 0.0061749171 -0.00025235375 0.0030142107 
 1237000    340.62695    452.26448    0.7306272    0.7263449    227.37107    5294.9542      27.0546      59.6399 8.3151772e-05 -0.016591899 0.00027677768 -0.0067149888 
 1238000    342.77933    455.09292   -16.711806   -16.784025    192.67971    5292.2842      27.0546      59.6399 -0.0010096396 -0.0048551874 -0.00057393052 -0.00049697952 
 1239000    347.17408    460.95923    42.931212    42.931145    316.23283    5481.2191      27.0546      59.6399 0.00020472533  -0.03150496 -0.00041524873 -0.0029463174 
 1240000    338.57271     449.4292    55.471618    55.218064    195.77108    5232.7928      27.0546      59.6399 -0.0003029549 0.0055712035 -0.00061241352 -0.0012644074 
 1241000    338.39286    449.23053   -304.08512   -304.24587     184.4691    5218.8152      27.0546      59.6399 -0.00041958813 -0.0029944768 0.00029261908 -0.0055056207 
 1242000    335.60828    445.52295   -86.469465   -86.654148    292.09171    5285.0109      27.0546      59.6399 0.0002104078 -0.00024535617 0.00013593855  0.020702627 
 1243000    340.26391    451.75473    70.711312    70.642915    145.34522    5207.5273      27.0546      59.6399 -0.00044999512  0.022820123 -3.7131259e-05 -0.0040619833 
 1244000    335.92215    445.98804    248.17115    248.09828    234.81308    5232.4018      27.0546      59.6399 0.00012945366 -0.0075656857 -3.828546e-05 -0.012403559 
 1245000    331.28999    439.85275    39.300806     39.26275    262.37759    5191.0526      27.0546      59.6399 5.3519514e-05 -0.003567919 0.0001620459 0.0026571553 
 1246000    331.58133    440.18589   -207.02773   -207.18999    73.068611     5006.078      27.0546      59.6399 0.00036755498 0.0041272861 -5.3123152e-05 -0.0080440762 
 1247000    351.11602    466.15354    213.64429    213.55266     109.0709    5332.7023      27.0546      59.6399 -8.8207287e-05 -0.0010194542 -0.00033344661  0.042433664 
 1248000     343.4062    455.94901    -204.0013   -204.01853    6.2368656    5115.1674      27.0546      59.6399 -0.00077878508   0.01053414 0.00012356188 -0.012751857 
 1249000    333.51256    442.74568    174.64081     174.4684    127.86737    5089.6081      27.0546      59.6399 0.00025476063 -0.0029233006 8.0071533e-05  0.027847054 
 1250000    340.54866    452.14896   -176.94236   -176.97339    189.27408    5255.6924      27.0546      59.6399 0.00015886862  0.021307477 0.00016539531 -0.022575745 
 1251000    346.05726    459.47451    389.55663    389.55225    274.26145    5422.6325      27.0546      59.6399 -0.00074554126  0.051146723 -0.0004142079  -0.01636485 
 1252000    344.15441    456.94983   -139.82035   -139.82052    153.89471    5273.9566      27.0546      59.6399 0.00010070489  0.020681834 8.9324981e-05 -0.0049621106 
 1253000     340.2722    451.70467   -74.588242   -74.797888    122.20389    5184.5093      27.0546      59.6399 0.0001461582 0.0074470717 2.0813845e-05 -0.0031126839 
 1254000    339.09112    450.20426    28.065448    28.012542     185.5332    5230.2674      27.0546      59.6399 -0.00014280236 -0.019496378 2.5853338e-05 0.0012604129 
 1255000    344.63158    457.58328     51.81761    51.817201    156.39962    5283.5604      27.0546      59.6399 7.1288363e-06 -0.011584537 0.00099952047  0.003490477 
 1256000    343.18843    455.65139    123.44204    123.40519    161.53779    5267.2286      27.0546      59.6399 0.00046827356 0.0027050876 -0.00029976405 -0.0003065958 
 1257000    341.30361    453.16422   -82.798692   -82.799932    197.47903    5275.1289      27.0546      59.6399 -0.00055907695 -0.0037976192 -0.00027764721  0.021323352 
 1258000    336.81046    447.19388    112.38004    112.36822    92.735807    5103.5401      27.0546      59.6399 -6.1340942e-05  0.009130225 0.00018825632  0.019102699 
 1259000    335.25596    444.95486   -222.19921   -222.61591    230.02957    5217.7073      27.0546      59.6399 0.00077773297   0.05198356 0.00057677687 -0.016695379 
 1260000    339.96861    451.36142    6.4807574    6.4095216    199.42061    5257.2094      27.0546      59.6399 -0.0001415206 -0.0079954507 -6.4417195e-05    0.0163559 
 1261000    343.35607    455.88157    322.74528      322.726    295.91406    5404.0989      27.0546      59.6399 0.00087507149  0.022575786 -0.00049555626 -0.003319863 
 1262000    341.94817    453.97209    218.34829    218.23616     199.7882    5287.0274      27.0546      59.6399 -0.00052155372 -0.011915485 -0.00051712078   0.02046398 
 1263000    342.01819    454.11344   -163.21613   -163.21635    266.20004    5354.4809      27.0546      59.6399 0.00055217216 -0.033450865 -0.00012705964 -0.019856486 
 1264000    345.64965    458.92813    21.454822    21.438475    90.892612    5233.1996      27.0546      59.6399 -8.6316684e-05 -0.0095875497 -0.00016276231 -0.030677114 
 1265000    344.86444    457.83923   -241.58966    -241.7132    159.34116    5289.9664      27.0546      59.6399 -0.00031695222 -0.041462438 -0.00035957009 -0.0065744782 
 1266000    347.51937    461.38515    74.590302    74.515001    229.05817    5399.1813      27.0546      59.6399 8.5163004e-05  0.010794547 -0.00019473582 -0.021763923 
 1267000    331.44947    439.90076    -123.8197   -124.23648    254.84302    5185.8906      27.0546      59.6399 -0.00038637023 0.0072416359 -0.00032514121 -0.0029159009 
 1268000    342.94914    455.33222   -63.485209   -63.525413     286.6813    5388.8121      27.0546      59.6399 4.3954116e-05 -0.016031094 0.00040042053 0.00098835045 
 1269000    346.19617    459.66075    24.879387    24.879186    221.29715    5371.7348      27.0546      59.6399 2.1664544e-05   0.02972024 0.00016902306 0.0082295124 
 1270000    342.68636    454.94782    49.222242    49.099915    214.64553     5312.867      27.0546      59.6399 0.00076219387 0.0098093721 -0.00050908337  0.024313832 
 1271000    334.74565    444.45247    128.77708    128.76556    259.72376    5239.8095      27.0546      59.6399 -0.00077439109  0.011171306 -0.00027464355  0.030497006 
 1272000     338.0249    448.81087    159.01583    159.01446    349.59129    5378.4631      27.0546      59.6399 0.0004196132 0.00032827517 -0.00070445213 -0.020601209 
 1273000    338.77661    449.75723   -121.22732   -121.34832    229.58117    5269.6363      27.0546      59.6399 0.00046992161 -0.0070991146 -4.651162e-05 0.0088823239 
 1274000    338.73793    449.72005    63.834612    63.746412    255.75968    5295.2393      27.0546      59.6399 -0.00016660143 -0.0061712627 0.00031651556  0.044451001 
 1275000    338.31857     449.2006   -163.32184   -163.32362    154.30196    5187.5427      27.0546      59.6399 0.0004262249 -0.0027723774 0.00035465866 -0.015900943 
 1276000    349.79532    464.40035   -194.97074   -195.06152    339.44213    5543.4252      27.0546      59.6399 -0.00057811108  0.005109529 -0.00030334266 -0.029335164 
 1277000    341.04773    452.52623    250.55827    249.86718    196.59151    5270.4346      27.0546      59.6399 -0.00033557362 0.0067470267 -0.00093484978  0.045504852 
 1278000    344.11715    456.90031    206.68949    206.68923    145.88207    5265.3896      27.0546      59.6399 -0.00082478451 0.0071405395 -0.0005945433  0.012719977 
 1279000    337.17318    447.60836    104.05817     103.8911    276.19729    5292.3978      27.0546      59.6399 0.0008122137   0.02608657 -0.00010875498   0.02885016 
 1280000    339.52553    450.76685    231.78181    231.69608    174.67023    5225.8672      27.0546      59.6399 0.00015014661 -0.0061973702 -0.0005258481  0.020575906 
 1281000    343.66381    456.26203   -147.90263   -147.98697     222.1615    5334.9246      27.0546      59.6399 -0.00044135771 0.00035961784 -0.00067257387  0.013591554 
 1282000    344.11566    456.86028   -62.330955    -62.41924    200.43964    5319.9251      27.0546      59.6399 -5.4227538e-06 -0.0020613873 -0.00035265107 -0.026281685 
 1283000    340.00674    451.44106   -47.165992   -47.170103    146.62415    5204.9802      27.0546      59.6399 0.00021299747 0.0013976548 0.0001515567  0.041217665 
 1284000    339.65876    450.88929   -110.80784   -111.01952    166.02072    5219.1998      27.0546      59.6399 0.00041423998 -0.017134636 0.00035949532 -0.018162356 
 1285000     336.8655    447.27065    183.80846    183.80516    154.87508    5166.4983      27.0546      59.6399 0.00018732123  0.011391051 3.7218405e-05 -0.016724477 
 1286000    344.30139    457.13638    20.167944    20.147885    200.97152    5323.2201      27.0546      59.6399 -0.00023419735  0.009987521 -2.0873956e-05  0.021313689 
 1287000    339.40977    450.62568   -288.21454   -288.27131    149.71896    5199.1938      27.0546      59.6399 0.00051277685 0.0058763203 -0.00055956041 -0.00029110368 
 1288000    337.30832    447.85455    72.034804    72.022146    191.69383    5209.9049      27.0546      59.6399 2.7150766e-05 -0.020749115 -0.0004419404 -0.0055657366 
 1289000    339.25201    450.42807   -438.29912   -438.32846    192.10057    5239.2284      27.0546      59.6399 -0.00075531713  0.018641606 0.00020087172 -0.021180336 
 1290000    340.45037    452.00531    31.439888    31.378457    172.25916    5237.2152      27.0546      59.6399 0.00024640638 -0.016576291 0.00016867107 -0.010821277 
 1291000    342.72901    455.05384    -89.65853   -89.666604    264.60782    5363.4638      27.0546      59.6399 -0.00021952005 -0.00091890606 0.00074437261 -0.0066798359 
 1292000    334.24284    443.77237    72.675632    72.635209    167.31342    5139.9187      27.0546      59.6399 -0.00048895067  0.061707439 9.3932106e-05 -0.0027181527 
 1293000     339.6707    450.75188    249.66114    249.09494    240.84084    5294.1976      27.0546      59.6399 -0.00045805508  0.013778296 0.00022808894 0.00082942924 
 1294000    339.89615     451.2728   -155.46995    -155.5236    217.47439    5274.1851      27.0546      59.6399 -0.0002116034  0.014275209 0.0001551933 0.0025680661 
 1295000    341.33712    453.20721   -137.83548    -137.8402     290.3532    5368.5017      27.0546      59.6399 -0.00017884307 -0.016320572 -0.00010096195 -0.0098901314 
 1296000    339.69194    451.02373    167.37971    167.37707    111.42279    5165.0956      27.0546      59.6399 0.00017938715 -0.0010658346 -1.1110538e-06 -0.025071121 
 1297000    336.44661     446.6935    149.32549    149.27371    189.05508    5194.4463      27.0546      59.6399 0.00070369159 0.0013120944 -0.00016729064 -0.00027650748 
 1298000    343.21784    455.68972    25.668721    25.630236     179.8564    5285.9847      27.0546      59.6399 8.1978782e-05 -0.015521271 8.4065816e-05  0.007574164 
 1299000    337.20623    447.71917    39.131094    39.118822    172.04901    5188.7413      27.0546      59.6399 -0.00011812709  0.019153414 0.00034835915 -0.015734094 
 1300000    340.22308    451.73008   -162.44027   -162.44029    156.55183    5218.1265      27.0546      59.6399 -0.00016659658 -0.0015361447 0.00014975378 0.0091715664 
 1301000    346.26653    459.75311     59.23143    59.228772    223.23395    5374.7183      27.0546      59.6399 0.00084411427 0.0015721235 5.7306411e-05 -0.00045110025 
 1302000    336.22574    446.37917    316.57724    316.47672    313.95686    5316.0621      27.0546      59.6399 -1.0064376e-05 -0.0025756441 0.00040559543  0.027773672 
 1303000    341.94759    454.00743   -378.22214   -378.25075     180.6336    5267.8641      27.0546      59.6399 -0.00028450703  0.013508722 0.00024210315 -0.018630441 
 1304000    340.36342    451.85688    105.25304    105.11533    122.56402    5186.2264      27.0546      59.6399 3.2618703e-05  0.012470886 -5.261919e-05 0.0073771398 
 1305000    341.56177     453.4738   -53.258829   -53.336838    294.09156    5375.5821      27.0546      59.6399 -0.00037200622 0.0090394838 -0.00069382072 -0.007564273 
 1306000     340.5368    452.12958    33.297345    33.257921    299.71987    5365.9617      27.0546      59.6399 0.00053557917  0.015066336 0.00058871708  0.034849212 
 1307000    343.57539    456.18065   -183.90127   -183.90232    280.60095    5392.0486      27.0546      59.6399 0.00035183106  -0.02771918 -0.00021499234 -0.017402856 
 1308000    346.22353    459.66829    320.38763    320.32085    163.83721    5314.6819      27.0546      59.6399 -0.00073383963 -0.0019235571 -0.00043970182 -0.015099772 
 1309000    339.38997    450.60394   -94.023576   -94.069807    119.89486    5169.0751      27.0546      59.6399 -0.00036444966 -0.00030508208 9.0997465e-05   0.01008414 
 1310000    343.17202    455.57259   -165.09157    -165.2603    285.77266    5391.2194      27.0546      59.6399 -0.00017285815 -0.017338902 -0.00026976843 -0.027001258 
 1311000     336.0613    446.09146   -169.93658   -170.19759    190.36034    5190.0193      27.0546      59.6399 -0.00050278893 0.0073484586 0.00025350967 0.0091205638 
 1312000    342.00883    453.81859   -131.17653      -131.83    221.63439     5309.776      27.0546      59.6399 -0.00034287049  0.012332711 -7.9729325e-05  0.030519159 
 1313000    345.39357    458.55603   -72.011315   -72.101901    151.80955    5290.3068      27.0546      59.6399 0.00046743487 -0.004379155 0.00023709566 -0.0067062405 
 1314000    343.23242    455.63835     123.4032    123.20111    134.76432    5241.1095      27.0546      59.6399 0.00012860356 0.00071984658 0.00011685463 -0.018927003 
 1315000    339.79618    451.16282   -12.118822   -12.119877    213.67458    5268.8982      27.0546      59.6399 5.5280537e-05 -0.023030516 -0.00013719513 -0.014109217 
 1316000    342.04892    454.11213   -413.17531   -413.27293    117.32931    5206.0673      27.0546      59.6399 9.2662843e-06 -0.0066111151 -0.00025272905 -0.014247467 
 1317000    346.39738    459.60822    70.320117    69.580461    227.60064    5381.0317      27.0546      59.6399 0.00044857078 0.0030878346 -1.748461e-05  0.033374575 
 1318000    342.78771    455.04871    8.5939886    8.3938013    324.11487     5423.844      27.0546      59.6399 0.0004125357 0.00055597505 -0.00011736341 -0.0094518629 
 1319000    337.15838    447.65845    103.17565    103.16991    149.29247    5165.2728      27.0546      59.6399 0.00011382544 -0.010756157 7.1975067e-05  0.025598024 
 1320000    337.43622    448.02961   -54.785984   -54.786533    326.49276    5346.6067      27.0546      59.6399 0.00075493694   0.00825696 -6.6459329e-05 0.0071234855 
 1321000     337.9432    448.70215    88.036107    88.034194    329.96441    5357.6207      27.0546      59.6399 -0.0001146355 0.0051331931 0.00025917309  0.016404736 
 1322000    337.21442    447.73525   -38.706178   -38.706409    349.84665    5366.6607      27.0546      59.6399 0.00051802492 -0.014683071 -0.00026824358 -0.011915217 
 1323000     341.8489    453.88875   -310.32477    -310.3248     197.2566    5283.0189      27.0546      59.6399 -0.00040537701  0.019193432 0.00029539607  0.027592295 
 1324000     343.0032    455.39873   -80.302405   -80.354787    308.98056    5411.9156      27.0546      59.6399 -0.0004433327 -0.016568496 0.00012347246  0.029165658 
 1325000    343.11432    455.47189   -184.16927   -184.39371    122.02128    5226.6096      27.0546      59.6399 -0.00046677868 0.0052610265 -0.00024849157 -0.00065414377 
 1326000     340.7069    452.34947   -111.31208   -111.36529    254.77263    5323.5451      27.0546      59.6399 0.00034302906 -0.014937994 -4.6564592e-05 0.0019743396 
 1327000    344.26043    457.08248   -46.575965   -46.594894     312.2428     5433.882      27.0546      59.6399 -1.7467631e-05 -0.014658836 0.00084565425 -0.016738464 
 1328000     344.7702    457.75883   -94.865128   -94.885179    195.07026    5324.2933      27.0546      59.6399 -0.00035577105  0.024743749 0.00031219492 -0.015415497 
 1329000    331.39763    439.97467    156.98412     156.8975     207.5264    5137.8029      27.0546      59.6399 -0.00048151679 0.0053043181 -8.5739354e-05 -0.0016391994 
 1330000    344.70329    457.65839   -276.27858   -276.32549     208.9094    5337.1372      27.0546      59.6399 0.0002893829  0.030986364 -5.5698817e-05 -0.003620629 
 1331000    340.29037    451.81429   -371.84508   -371.85697    183.62318    5246.1988      27.0546      59.6399 -0.00062817559 0.0016346778 0.00028170065  0.010083498 
 1332000    344.71713    457.69624    41.856507    41.854621     188.3071    5316.7408      27.0546      59.6399 -0.00030132714  0.024074702 0.00028402065 -0.011427432 
 1333000    339.76739    451.12504    27.694542    27.694537     250.7279    5305.5231      27.0546      59.6399 -0.00015750843 -0.0060407896 0.00073710768  0.023509989 
 1334000    336.98437    447.34034   -82.649545   -82.856709    211.78121    5225.1728      27.0546      59.6399 6.2287552e-06 -0.0029731356 2.4044007e-07 -0.037699933 
 1335000    344.56311    457.49254   -282.34125   -282.34125    240.03217    5366.1743      27.0546      59.6399 -0.00028613684 5.2060538e-05 -4.5513977e-05 6.7733044e-05 
 1336000    336.92913    447.32407   -5.8932511   -5.9684046    325.22804    5337.7979      27.0546      59.6399 8.4313474e-05 -0.022849565 0.0001525509  0.010158226 
 1337000    333.65119    442.99907   -77.681942   -77.693989    151.12701    5114.9301      27.0546      59.6399 -1.7514429e-05 0.0013409034 0.00014862159 -0.029271936 
 1338000    333.40225     442.6728   -8.2864648   -8.2886538    209.42543     5169.525      27.0546      59.6399 0.00032648252 -0.012576829 -7.2515676e-06  0.020698656 
 1339000     340.8661    452.57683    61.576661    61.560418    157.90443    5229.0454      27.0546      59.6399 0.00035683799 -0.0051654657 -0.00011709798  0.011307133 
 1340000    346.10726    459.46256    413.80189     413.6163    247.55782    5396.6727      27.0546      59.6399 -0.00040213651 -0.010097337 -0.00056293363  0.020763508 
 1341000    336.43831    446.69903    122.55881     122.5453    226.62603    5231.8938      27.0546      59.6399 0.00012430115 -0.034610497 -0.00028225878  0.011206393 
 1342000    346.61874    460.20642   -135.78458   -135.82038    156.10053    5312.8248      27.0546      59.6399 -0.00020208083 0.0050806804 0.00059370437   0.02063167 
 1343000    342.77465    455.10213   -207.35952   -207.39605    181.73908     5281.274      27.0546      59.6399 0.0003459877  0.012059311 0.00022966513 -0.0057597206 
 1344000     344.8698    457.88412   -119.82249   -119.85866    210.22148    5340.9264      27.0546      59.6399 -0.0001961277  0.010884662 -0.00081777859  0.022333651 
 1345000    342.91918    455.27966    180.01905    179.94928    151.40166    5253.0868      27.0546      59.6399 -3.1130609e-07 -0.027314513 0.00014912012 0.0084536695 
 1346000    331.48459    440.09459    54.532568    54.456259    273.26555    5204.8357      27.0546      59.6399 -0.00020725012 0.0098416623 9.786812e-05 -0.014024419 
 1347000    339.18272    450.32228   -276.85334   -276.91454     79.20698    5125.3039      27.0546      59.6399 0.00015146186  0.017693846 -0.00027045216 -0.026224287 
 1348000    339.40681    450.64518    560.87525    560.87269    243.87557    5293.3064      27.0546      59.6399 -0.00044188652  0.010233135 -0.00033408086 -0.025846876 
 1349000    344.00183    456.74685    -221.6036   -221.60465    164.23865    5282.0306      27.0546      59.6399 -0.00031466191 -0.019757327 5.2032419e-05 -0.0013540412 
 1350000    341.07495    452.80402    14.653862    14.521713    244.91495     5319.163      27.0546      59.6399 0.0010097338  0.026910886 -0.00035614767 0.0041760106 
 1351000      343.308    455.80551   -302.69021    -302.7378    199.31828     5306.788      27.0546      59.6399 -0.00011969465 0.0025284859 0.00033337281 -0.0053779031 
 1352000    337.39861    447.96536    82.172849     82.13919    244.18042    5263.7348      27.0546      59.6399 0.00020168469 0.0058650591 0.00046459362 0.0086895269 
 1353000    340.12022    451.40153   -80.525507   -80.969566     259.9346    5319.9789      27.0546      59.6399  0.000449197 -0.0092433727 0.00045038718  0.019138778 
 1354000    341.90549    453.96215     220.6321    220.62804    236.02442    5322.6287      27.0546      59.6399 -0.0011188315  0.033653516 -0.00021798567 -0.011445801 
 1355000    343.70674    456.29663   -256.97346   -257.10962    324.38579    5437.7876      27.0546      59.6399 -0.00053108465 -0.004092409 0.00011457544 0.0018742487 
 1356000    338.88099    449.91649   -419.10082   -419.17403    225.87215    5267.4803      27.0546      59.6399 -1.4143346e-05 -0.024960197 -0.00054693044 -0.020925742 
 1357000    340.18139    451.64765    47.466076    47.403427    193.96982    5254.9242      27.0546      59.6399 -0.0002560921 0.0037785755 -0.00035305715 -0.012031335 
 1358000    338.91436    449.96025    -71.43917   -71.513628    291.72347     5333.828      27.0546      59.6399 -0.00017887935  0.023261486 -0.00019464408 -0.021101657 
 1359000    340.41663    451.88783   -254.05672   -254.28627    290.20643    5354.6606      27.0546      59.6399 0.00015611384 -0.014153997 0.00025734552 -0.0053871514 
 1360000    345.10407    458.20031    48.086946    48.062665    200.38406    5334.5743      27.0546      59.6399 0.00059920131 -0.027495277 -0.00074008126  0.038703456 
 1361000    334.09256    443.58624   -4.5559472   -4.5653626    428.72985    5399.0994      27.0546      59.6399 0.00034006732 0.0090218469 3.3372047e-05 -0.0065175997 
 1362000    341.45561     453.3583   -256.70117   -256.72031    354.37697    5434.2882      27.0546      59.6399 7.3632973e-05 0.0005863626 0.00038066524 0.0016641154 
 1363000    341.57368     453.2094   -50.898561   -51.624734     264.2583    5345.9261      27.0546      59.6399 -0.00013992341 -0.023679379 -5.6898449e-05 0.0015519833 
 1364000    343.59769    456.20435   -2.9853616   -3.0000871    151.92053       5263.7      27.0546      59.6399 -0.00030588269  0.016454514 0.00030200697  0.017191643 
 1365000    335.62541    445.62518    90.515884     90.51503    210.97798    5204.1521      27.0546      59.6399 -6.7078848e-05  -0.01410527 -0.00044959448  0.021836298 
 1366000    341.07799    452.86508   -36.723892   -36.724159    255.99046    5330.2838      27.0546      59.6399   -0.0010644 -0.0043617734 -9.2320063e-05 0.0082585377 
 1367000    342.85737    455.20917    185.92885    185.88587    63.444073    5164.2096      27.0546      59.6399 1.4430852e-05 -0.048690987 0.00018804595 -0.024443413 
 1368000    343.72124     456.2943    77.779733     77.59361    303.95782    5417.5754      27.0546      59.6399 0.00024472547 0.0042119864 5.4250107e-05 0.0014784597 
 1369000    333.68727    443.03916    76.868185    76.838073    325.36801    5289.7079      27.0546      59.6399 -0.00017758105 0.0035468336 0.00017062757  0.019014602 
 1370000    333.84617    443.25789     257.4606    257.44839    275.34941    5242.0534      27.0546      59.6399 -0.00036037864  -0.01819202 -1.661173e-06 -0.0063981546 
 1371000    337.56415    448.18475   -124.57467   -124.60924    322.18872    5344.2058      27.0546      59.6399 0.00025405983  0.038065997 -1.1342712e-05 -0.011982077 
 1372000    339.57287    450.86676   -108.06428    -108.0643    257.41311    5309.3144      27.0546      59.6399 0.00011354019 -0.031683472 5.4156082e-05  0.027033848 
 1373000    336.50589    446.71545     7.462265    7.2791813    194.56312    5200.8363      27.0546      59.6399 0.00037007824 -0.0023030496 -0.00046360417  0.025340056 
 1374000    332.67589    441.70002   -85.365544   -85.387097    302.89041    5252.1839      27.0546      59.6399 -0.00027999417 0.0051782254 0.00077960145 -0.0058361378 
 1375000    342.74957    455.07311    -72.43194   -72.458563      271.051    5370.2127      27.0546      59.6399 -8.6487075e-05 -0.00019399932 0.00067088269  0.013989656 
 1376000    342.60963    454.87026    203.77412    203.70806    289.41027    5386.4901      27.0546      59.6399 0.00012640383 0.0026471587 0.00018442901  0.023246053 
 1377000    349.01059    463.34694    -172.7376   -172.85494    163.97621    5356.2846      27.0546      59.6399 0.00087650238 0.0098504817 -0.00061767105 -0.014283076 
 1378000    337.59348    448.23265    190.35339    190.33951    125.11917    5147.5727      27.0546      59.6399 0.00066244323 0.0023108786 3.7205089e-05  0.051480392 
 1379000    337.75895    448.39188   -201.74911   -201.90285    229.72893    5254.6442      27.0546      59.6399 0.00049809045 -0.0018693057 0.0009741364  0.019089729 
 1380000    348.52128    462.69587    100.50209    100.38153    123.68407    5308.7128      27.0546      59.6399 -0.00036247625  0.010792886 -0.00054825797  -0.01116049 
 1381000    329.84083    437.93963   -152.66371   -152.67635    233.11884    5140.2344      27.0546      59.6399 -0.00060497518 -0.0037902737 2.7901285e-05  0.032785122 
 1382000    337.85995      448.591   -76.319059   -76.322391    255.79384    5282.2116      27.0546      59.6399 0.00018644442 -0.0063650228 -0.0002232717  0.014418712 
 1383000    346.04317    459.43261   -28.273777   -28.331782    167.61878    5315.7802      27.0546      59.6399 -0.00051653732  0.027825731 0.00046823955 -0.0053401075 
 1384000    335.97966    446.07692    -313.0641     -313.108    343.51627    5341.9606      27.0546      59.6399 0.0001418787 -0.0079062171 -0.00026918353 -0.00017548303 
 1385000    349.14609    463.56939    109.25537    109.23642    67.513754    5261.8379      27.0546      59.6399 -0.00054416786 -0.00057186425 -0.00037775012 0.0055664033 
 1386000    338.92161    449.95702   -157.82131   -157.92548    133.01872     5175.231      27.0546      59.6399 -0.00038352689 -0.028775212 -0.00024326947 -0.016384093 
 1387000    343.80325    456.46077    35.766504    35.713589    266.79536     5381.633      27.0546      59.6399 0.00012331295  0.007143898 -1.5362334e-05 -0.0069103811 
 1388000     339.8589    451.24572   -138.08591   -138.08784    157.40249    5213.5592      27.0546      59.6399 -5.4052367e-05 -0.0089883699 -0.00031104357 -0.0083727182 
 1389000    341.03416    452.80257   -267.03213   -267.04237    319.67691    5393.3181      27.0546      59.6399 0.00019674973 -0.014060401 5.5661501e-05 -0.0005579249 
 1390000    339.20241    450.37009   -340.93433   -340.94546    189.35482    5235.7447      27.0546      59.6399 0.00019682126  0.023619484 -0.00035452758 -0.011894277 
 1391000    338.50935    449.45035   -398.10355   -398.11357    242.92498     5279.004      27.0546      59.6399 0.00011434275 -0.008594686 -0.0002352491 0.0070920979 
 1392000    337.12196    447.60838    163.71998    163.71024     309.7027    5325.1413      27.0546      59.6399 3.5204932e-05  0.030603881 7.2754733e-05 -0.0034690584 
 1393000    338.71951    449.65915   -61.779727   -61.952229    70.598595    5109.8043      27.0546      59.6399 -0.00085295523  0.008629236 0.00066216473 -0.019680333 
 1394000    338.76359    449.78849    208.52713    208.51845    237.96186    5277.8232      27.0546      59.6399 0.00091813109  0.030516055 -0.00043660702 -0.033819899 
 1395000    340.19603    451.64889   -64.945824   -65.050575    181.23406    5242.4063      27.0546      59.6399 -0.00027647482 -0.034588243 -0.000831656    0.0170893 
 1396000    343.54763    456.14114    -63.25098   -63.258168    215.44383    5326.4786      27.0546      59.6399 0.00049711658  -0.01332097 0.0012528022  0.034648597 
 1397000    337.68461    448.27424   -190.08258   -190.28012    118.30777     5142.117      27.0546      59.6399 0.00042329063 -0.0077973102 0.00028883467 -0.001848142 
 1398000    334.94689    444.72462    67.245115    67.245071    126.61152    5109.6911      27.0546      59.6399 0.00064130104 -0.0083773808 -0.00023384749 0.00049461491 
 1399000    342.16448    454.27631    241.52207    241.44928    266.90635    5357.3636      27.0546      59.6399 0.00012932844 -0.014351132 0.00023962355  0.010672056 
 1400000    338.96546     450.0336    -152.0774   -152.13911     108.4322    5151.2969      27.0546      59.6399 0.00046394481 -0.014774314 0.00089292969  0.027264686 
 1401000    346.23306    459.68122   -118.51245    -118.5786    125.25012    5276.2366      27.0546      59.6399 9.2112657e-05 -0.0012720941 0.00021215381  0.014794994 
 1402000    335.02852    444.82694    108.51669    108.50262    193.55287    5177.8469      27.0546      59.6399 0.00010518541 -0.031167383 -0.00026603045 0.0033316723 
 1403000    338.34152    449.22685   -243.86829   -243.87985    297.31794    5330.9001      27.0546      59.6399 0.00028701994 -0.0045175245 -0.00023672897  0.011074404 
 1404000    338.55098    449.50665   -53.375244   -53.382898    211.85639    5248.5548      27.0546      59.6399 -1.3992442e-05  0.014778925 -0.00011299844 -0.016486138 
 1405000    340.71707    452.35923   -107.80113   -107.86298    123.10393    5192.0277      27.0546      59.6399 0.00057874982 -0.0082042937 0.00042591574  0.015992975 
 1406000    341.30523     453.1582    420.59787    420.57774    188.54414    5266.2181      27.0546      59.6399 -0.0001196141 -0.0097228358 0.00034414739  0.014989219 
 1407000    347.82424     461.8125    299.22367    299.20053    231.03458    5405.6934      27.0546      59.6399 0.00021540218 -0.018591599 0.00060477993 0.0083161617 
 1408000    339.98163    451.38282   -133.41087   -133.47259    142.92183    5200.9043      27.0546      59.6399 -0.00023337331 -0.015271457 -0.00042089174 -0.0075783201 
 1409000    330.62249    438.97309   -501.00333    -501.0261     192.7199    5111.4644      27.0546      59.6399 0.00039629328  0.021623988 -0.00034262696 -0.0081711375 
 1410000    343.76286    456.34048   -59.538295   -59.745398    118.03338      5232.27      27.0546      59.6399 0.00012682082 0.0049226738 7.7534216e-05   0.02445944 
 1411000    347.26943    461.08582      333.405    333.40494    186.62873    5353.0334      27.0546      59.6399 -2.8725628e-07   -0.0494538 0.00025544021 -0.0020810784 
 1412000    344.84735    457.75974    74.335102    74.080185     176.7131     5307.084      27.0546      59.6399 0.00024911535 -0.00047617211 -0.00028320256  0.011008469 
 1413000    346.33488    459.83554    152.38899    152.36708     180.6597     5333.161      27.0546      59.6399 0.00023746991 0.0091562526 -9.9556157e-05  0.010930093 
 1414000    339.93391    451.33221    229.33353    229.30131    253.70891    5310.9814      27.0546      59.6399 -0.00037220808 -0.0041619274 -0.00065130068 0.0062533418 
 1415000    337.00118    447.45177    214.82922    214.82819    370.77483    5384.4165      27.0546      59.6399 -1.028303e-05  -0.01144283 -0.0012953152  0.022974605 
 1416000    342.06523    454.17494    52.050252    52.047801    262.29238    5351.2731      27.0546      59.6399 0.00036605103  0.034460948 -0.00071997774  0.029252797 
 1417000    333.94332    443.38353    99.899814    99.879857    325.54397    5293.6933      27.0546      59.6399 4.9859155e-05 -0.011799526 0.00075746563 0.0048619768 
 1418000    338.75305    449.73124     205.2102    205.10144     103.7559    5143.4605      27.0546      59.6399 -0.00052170238  0.029361736 0.00040783194  0.015933598 
 1419000    351.13257    466.21252    8.1986743     8.192631    225.85325    5449.7308      27.0546      59.6399 0.00010315731 -0.014029815 -2.9807714e-05 0.0042116685 
 1420000    335.97548    446.08536    97.244988    97.233422    298.50035    5296.8825      27.0546      59.6399 -0.00025709129 -0.0030004693 0.0004403713 0.0087721206 
 1421000    340.04241    451.20725    9.4845312    8.8300569    223.33402    5282.2207      27.0546      59.6399 0.00095121023  0.014377315 0.00031675982 -0.015943584 
 1422000     345.5906    458.83876    54.377443    54.335744     127.7744    5269.2027      27.0546      59.6399 0.00028007395 -0.0078743876 0.00047760587 -0.0057337226 
 1423000    346.31744    459.80884     174.5467    174.51661    201.34197    5353.5837      27.0546      59.6399 -0.00033590451 -0.0062238912 -0.00023692728 0.00017919304 
 1424000    342.09869    454.21875    369.16917    369.16529    181.69896    5271.1775      27.0546      59.6399 1.8520023e-05 0.0089607855 -0.00064273126 -0.006437463 
 1425000    348.29546    462.44658    115.78978    115.78612    150.28796    5331.9571      27.0546      59.6399 0.00040860928 -0.0019524517 0.00012542322 0.0018350962 
 1426000    343.57503    456.13553    122.08035    121.97605    277.87731    5389.3196      27.0546      59.6399 -0.00087948763 -0.0042170248 -5.6452812e-05 0.0073423648 
 1427000    338.10562    448.90768   -76.808607   -76.833943     138.1239    5168.1966      27.0546      59.6399 0.00021811399 -0.018473171 -0.00098832188 -0.0061938889 
 1428000    342.12405     454.1917   -15.362093   -15.506413    282.76002    5372.6158      27.0546      59.6399 -3.3244764e-05 -0.020343155 -0.00013829017 0.00025906875 
 1429000    346.91492    460.48034   -322.84032   -323.15215    160.85797    5321.9885      27.0546      59.6399 8.1619111e-06 -0.041723357 -0.00028872842 -0.023552134 
 1430000     345.1517    458.24421    240.75338    240.68437    136.81061    5271.7094      27.0546      59.6399 -0.00032024999 0.0086602467 -0.00014482553 -0.0071256553 
 1431000    339.49945    450.76878   -240.48561   -240.48678    262.12871    5312.9377      27.0546      59.6399 -7.2275864e-05 -0.038212377 -6.872125e-05 -0.036372346 
 1432000     338.3899    449.23675    99.855501    99.718248    156.11964    5190.4216      27.0546      59.6399 0.0002024488 -0.012885984 0.00015426432 2.4717014e-05 
 1433000    344.08082    456.80295    281.53403    281.42013    165.39985     5284.367      27.0546      59.6399 0.00083264154    0.0152451 -0.0001506354 -0.033612996 
 1434000    342.02062    453.95769   -264.25755   -264.62549    134.55959    5222.8766      27.0546      59.6399 -0.00021283676 -0.027635092 0.00068577853  0.027638821 
 1435000    336.63572    446.96208    169.53712    169.52579    159.21065    5167.4154      27.0546      59.6399 -0.00043435238  0.019336806 0.00056606656  0.023204122 
 1436000    338.81326    449.80429  -0.78049625  -0.90520104    189.11738    5229.7178      27.0546      59.6399 -0.00019671676 0.0016868605 0.00020957939 -0.018434451 
 1437000    346.37073    459.88883    231.26451    231.25579    201.46154    5354.4961      27.0546      59.6399 0.00025479289  0.028210298 0.00041197872  0.010699021 
 1438000    337.48003     448.0833   -55.419602   -55.430513    180.33647    5201.1021      27.0546      59.6399 -0.00029196893 0.0015519246 2.8732621e-05 -0.0036358877 
 1439000    334.46063    443.98455   -28.410783   -28.629279    67.457252    5043.3026      27.0546      59.6399 -0.00037655464    0.0258742 7.015187e-05 -0.0068788757 
 1440000    341.99082     454.0766    146.93463    146.93326    177.23492    5265.1085      27.0546      59.6399 0.00065725364  -0.01997509 -0.00029752541 -0.0082300229 
 1441000    337.84798    448.57654    323.21063    323.21059    99.807725    5126.0474      27.0546      59.6399 -0.00019281608 0.0039486069 -0.00066477643 0.0092151927 
 1442000     334.8447    444.47446    116.87858    116.61375    162.25785    5143.8171      27.0546      59.6399 6.9970581e-05 0.00086314912 3.4486902e-05  0.017941208 
 1443000    335.57947    445.53838     135.5541    135.49356    136.27915    5128.7698      27.0546      59.6399 0.00016480594 -0.025033207 -0.00074209769 -0.0074912867 
 1444000    334.80064    444.51313    313.02654    312.98645    197.90756    5178.8114      27.0546      59.6399 0.00028611804 0.0040773518 9.2301867e-05 -0.020320931 
 1445000    343.44574    456.00464   -309.11484   -309.12485    267.98837    5377.5072      27.0546      59.6399 8.2440802e-05 -0.022137736 -0.00053783603 0.0011923808 
 1446000    341.67384    453.63576    132.34669     132.2991    194.23072    5277.3887      27.0546      59.6399 0.00019939149 -0.0043173301 -8.2562826e-06  0.013295927 
 1447000    340.24056    451.72493    107.77638    107.71076    219.22846    5281.0631      27.0546      59.6399 -0.00013616496 0.00047471092 -0.00083773577 0.0060999829 
 1448000    346.54082    460.08791    273.13234     273.0617    95.932111    5251.4972      27.0546      59.6399 0.0014115357  0.046394148 -0.00033848229  0.027260597 
 1449000     343.3363    455.83397    207.49541    207.42674    73.910769    5181.8015      27.0546      59.6399 -0.00023191181 0.00055123207 0.00052032051  0.014209251 
 1450000    348.74704    463.04368    119.06817    119.05877    220.72906    5409.1165      27.0546      59.6399 -2.2162133e-05 -0.015846425 -0.00041101892 -0.021394103 
 1451000    343.42861     455.9451   -8.1487637   -8.2438693    157.85527    5267.1193      27.0546      59.6399 -7.6063068e-05   0.00781059 0.0002819506 -0.0062610403 
 1452000     341.2632    453.09546    175.11379    175.07761    148.33438    5225.3831      27.0546      59.6399 -0.00022728093 -0.011540813 8.1261235e-05   0.01188594 
 1453000    342.66044    454.91197   -5.5394328    -5.665072    270.27939    5368.1152      27.0546      59.6399 0.00022644834  0.043877232 -0.00024677597  0.025037043 
 1454000    337.54128    448.16218   -90.928016   -90.944576    249.34338    5271.0203      27.0546      59.6399 0.00016232259  0.011656026 0.00072930318 -0.0031314747 
 1455000    336.43974    446.66586   -230.12827    -230.2229    132.33763    5137.6267      27.0546      59.6399 -6.2163756e-05 -0.024633779 -0.00069132162 -0.0072677971 
 1456000    340.38836    451.90353     208.0422    207.93579     114.5899    5178.6234      27.0546      59.6399 0.00060350367 -0.032479974 0.00020463913  0.025332788 
 1457000    338.48234    449.41795    244.25895    244.25693    195.10161    5230.7789      27.0546      59.6399 -0.00063344202 0.0081812421 -0.00028732986 -0.0048965867 
 1458000    333.87667    443.30214   -299.39847   -299.40198    168.89932     5136.057      27.0546      59.6399 0.00020780078  0.024867715 -2.8149206e-05 0.00013578018 
 1459000    345.29769    458.45944   -168.74441   -168.76393    187.83194    5324.9026      27.0546      59.6399 -0.00048502158  0.010796187 8.159197e-06 -0.012014075 
 1460000    338.91869    449.93899   -357.87813   -358.01507    193.02199     5235.191      27.0546      59.6399 0.00092805398  0.026316477 4.9084353e-05 0.0039825697 
 1461000    337.00103    447.31587    299.06991    298.75497    202.44578    5216.0853      27.0546      59.6399 0.00030467423  0.019859361 -0.00075036191 0.0015873832 
 1462000    335.70037    445.72401    151.98355     151.9811    149.16961    5143.4588      27.0546      59.6399 0.00012837427 0.0069768606 0.00014708481 -0.014635108 
 1463000    339.99801    451.40741    57.449177    57.394051    233.14333    5291.3695      27.0546      59.6399 -0.00067113754  0.017480898 -0.0002225359 -0.016218342 
 1464000      338.575    449.54104    122.02474    122.02286     281.1534    5318.2092      27.0546      59.6399 0.00029256192  0.010936217 -0.00014771688 0.0097979614 
 1465000    336.94467    447.36259    184.78175    184.74798    132.50259    5145.3035      27.0546      59.6399 -0.0005305101 -0.010409139 4.4123907e-05 0.00095190443 
 1466000    343.70612    456.32753    118.22544    118.16264    202.18409    5315.5767      27.0546      59.6399 0.00085088445   0.01879281 -0.00054340342  0.014989253 
 1467000    340.75241    452.35762   -294.04134   -294.21548    177.18301    5246.6326      27.0546      59.6399 0.00025368459 0.0024557129 -0.00019332518 -0.0041028663 
 1468000    340.57467    452.14073    359.44178    359.31183    275.25328    5342.0586      27.0546      59.6399 -0.00016448512 -0.023776172 -3.9363046e-05 -0.0016004641 
 1469000    339.71307    450.92047    91.795879    91.489504    252.10357    5306.0907      27.0546      59.6399 -0.0004211409 -0.019960726 0.00040442121  0.025023274 
 1470000    339.64395    450.92324    184.06596    183.97828    281.89545    5334.8543      27.0546      59.6399 0.00064821811  0.002676293 0.00074121014  0.027985279 
 1471000    340.35276    451.88846   -195.88392   -195.91585    189.26562    5252.7695      27.0546      59.6399 -0.00030373263  0.031588544 0.00018494841  0.016897063 
 1472000    336.43058     446.6788   -360.94204   -360.97862    344.75579    5349.9086      27.0546      59.6399 -0.00070099173 -0.0051899336 0.00060089777 0.0020555283 
 1473000    340.86601    452.58372   -81.968654   -81.968695    267.01273    5338.1524      27.0546      59.6399 0.00056579425  0.010488429 0.00043148398  0.017922921 
 1474000    342.64488    454.90872    507.22576    507.14041      256.389    5353.9932      27.0546      59.6399 0.00039146039 0.0054222725 -0.0002083515 -0.00039951047 
 1475000    345.14277     458.2614    123.98427    123.98245    243.89995    5378.6658      27.0546      59.6399 -0.00036200745 -0.0032811323 0.00048665765 -0.007104465 
 1476000    337.78439    448.49186    4.5002808    4.4996681    238.63513    5263.9288      27.0546      59.6399 0.00050486467 -0.00075582402 0.00050266426  0.010244627 
 1477000    340.44807     452.0252   -302.22273   -302.23109    364.66934    5429.5912      27.0546      59.6399 -0.0009959617 -0.0017027019 0.00036202672 -0.010912704 
 1478000    336.83131    447.22625    198.09193    198.09093    146.88494    5157.9995      27.0546      59.6399 -0.00058369876 -0.012606185 -5.0751168e-05 0.0039865814 
 1479000    347.88152    461.89809    120.95124    120.95016    321.42406    5496.9351      27.0546      59.6399 0.0001653775 -0.006345995 0.00074582319  0.025866303 
 1480000    342.05461    454.15336    22.610074    22.590345    289.57422    5378.3969      27.0546      59.6399 -0.00033655962 -0.025444431 0.00032609321  0.002075091 
 1481000    339.41037    450.64916   -265.13219   -265.13648    301.59252    5351.0763      27.0546      59.6399 -0.00045050026  0.011166343 -0.00074100023  0.017337012 
 1482000     340.8174    452.50394   -124.88688   -124.92216    211.20259    5281.6191      27.0546      59.6399 -0.0003201024  0.013187111 7.6883309e-05 -0.033219061 
 1483000    336.20494    446.39076     68.87395     68.86411    194.05145    5195.8473      27.0546      59.6399 -6.8262476e-05  0.011160994 0.00042355021  0.014617749 
 1484000    341.24216    453.03927    318.99955    318.89799    281.60464    5358.3404      27.0546      59.6399 0.00023528111 -0.011091515 8.4128306e-05  -0.00530988 
 1485000    343.86417    456.54685    26.641126    26.600218    321.04642    5436.7904      27.0546      59.6399 -0.00035661689 -0.025631763 0.00079614416 0.00083418509 
 1486000    338.92395    449.98478    192.79758    192.75041    245.50338    5287.7506      27.0546      59.6399 -0.00030287041   0.01317006 -0.00043418498  0.021510435 
 1487000    343.80401    456.48397    230.94486    230.94327    173.73323    5288.5822      27.0546      59.6399 -0.00052625204 0.00045189249 -0.00036375078  0.011831481 
 1488000    342.49815    454.69766   -226.23187   -226.35481    187.92126    5283.3427      27.0546      59.6399 -0.00032999221  0.021041217 0.00044162213 -0.0077979674 
 1489000    340.47275    451.93377     254.4302    254.13457    208.04705    5273.3361      27.0546      59.6399 -0.00019886222 0.0098357384 -0.00014588047  0.032085509 
 1490000    340.58415    451.93697    232.55795     231.9276    241.57071     5308.517      27.0546      59.6399 0.00019068522 -0.034798633 -0.00016628817  -0.01689548 
 1491000    335.89664     445.9536    356.29613    356.22194     232.8201    5230.0293      27.0546      59.6399 -0.0009088868  0.008467687 -0.00013623153 -0.026692241 
 1492000    334.62914    444.26389   -131.58327   -131.67314    176.41956    5154.7718      27.0546      59.6399 -0.00015627696 -0.016706775 -0.00034564153  0.021082126 
 1493000    340.90523     452.6298    11.054275    11.040392    233.21722    5304.9403      27.0546      59.6399 0.00043889523  -0.01284686 0.00018477851 -0.029442949 
 1494000    335.57832    445.53382    120.70267    120.63514    214.85975    5207.3332      27.0546      59.6399 -0.00034265626 -0.00081872547 0.00052833653  0.029058318 
 1495000    332.82972     441.8995    -391.0603   -391.09288    69.682173    5021.2642      27.0546      59.6399 1.6211027e-06 0.0095450442 -0.00072502858 -0.012825119 
 1496000    343.47382    455.95754     108.0423    107.83711    92.828096    5202.7647      27.0546      59.6399 -0.00041412568 -0.017970049  0.000106482 -0.0047364982 
 1497000    343.00578    455.41064    140.37762    140.34484    112.40979    5215.3832      27.0546      59.6399 0.00014506158 0.0031561964 -3.9511397e-05 -0.0047619198 
 1498000    339.24314    450.42591    205.86882    205.86174    117.86822     5164.864      27.0546      59.6399 -0.00039180175 -0.0062825511 4.8556705e-06  0.028062661 
 1499000    343.21494    455.70189    311.25452    311.25305    94.821855    5200.9071      27.0546      59.6399 -0.00018860811     0.017174 6.4902779e-05 -0.019037304 
 1500000    344.49297    457.36354     165.0747     164.9917    242.17814    5367.2769      27.0546      59.6399 4.5812499e-06 -0.025689664 -7.2858883e-05 -0.0044231351 
 1501000    337.64259    448.30292    356.92237    356.92024    123.90727    5147.0913      27.0546      59.6399 1.1268907e-05  -0.01409574 0.00050040216 0.0047427633 
 1502000    345.27859    458.38504    140.16219    140.02924    195.86629    5332.6528      27.0546      59.6399 0.00045028837 -0.00010324529 6.2881169e-06 0.0088589895 
 1503000    341.56885    453.44638    124.35373    124.19057     111.4367    5193.0326      27.0546      59.6399 0.0001424781  0.012351852 0.00029990772 0.0093888415 
 1504000    337.34255    447.88667   -169.27002   -169.31351    278.13699    5296.8573      27.0546      59.6399 -0.00043188619  0.009400565 0.00031910701 -0.0089741939 
 1505000     342.4766    454.61327   -33.446705   -33.698653    215.09725    5310.1981      27.0546      59.6399 -0.00059417291 -0.011035508 -0.00050896456 0.0050782793 
 1506000     342.5859    454.86603   -177.06432   -177.06729     161.9528    5258.6796      27.0546      59.6399 -0.00049049245 -0.023631026 -0.00026161785 0.0073225123 
 1507000    339.19804    450.35064    75.916533     75.87385    170.50346    5216.8284      27.0546      59.6399 -0.00038852942 0.0023286285 -0.00037768699 -0.010421719 
 1508000    346.85572    460.50281   -46.294413   -46.372463    123.50308     5283.753      27.0546      59.6399 0.0001307954 -0.00065772274 4.2428261e-05 -0.0054325408 
 1509000     334.7902    444.49824   -254.01752   -254.05996    283.36263     5264.111      27.0546      59.6399 0.00051693257 -0.026560277 0.0007202562  0.032235589 
 1510000    344.21594    457.00143    82.654734    82.584949     124.9778    5245.9551      27.0546      59.6399 -0.00037327067 0.0036182274 0.00057638814 -0.028666571 
 1511000    337.90424    448.59414    39.200405    39.068277    270.55843    5297.6352      27.0546      59.6399 -0.00037278443  0.020432488 0.00013582974   0.01793993 
 1512000    341.45529    453.36439   -104.46037   -104.46445    236.89377    5316.8003      27.0546      59.6399 0.00068623064 -0.0046010331 0.00061679293  0.013451976 
 1513000    338.82774    449.87678    229.19078    229.18926    206.28763    5247.1035      27.0546      59.6399 -0.00099854675  0.018770085 5.9219363e-05 -0.0089204076 
 1514000     340.2282    451.58437   -276.07884   -276.43163    212.69652    5274.3474      27.0546      59.6399 0.00030222784 0.0042261879 0.00057389055 -0.023784637 
 1515000    341.83422    453.51314    238.67876    237.85502    317.51696    5403.0609      27.0546      59.6399 -0.00028334659 -0.026381283 -0.00017996073 0.0031814558 
 1516000    331.46136     440.0288    186.25384     186.0967    353.11124    5284.3358      27.0546      59.6399 -0.0001671738 -0.021408608 -2.7960822e-05 -0.011895234 
 1517000    347.07495    460.82716   -120.03396   -120.03506    319.46498    5482.9764      27.0546      59.6399 0.00021935638 0.0027758554 0.00090721997  0.026413605 
 1518000    344.21893    457.03024    201.09195    201.07964    395.70318    5516.7249      27.0546      59.6399 1.0966009e-05 -0.028253775 0.00044686879  0.013074266 
 1519000    335.82032    445.88425    163.58016    163.57996    262.95081    5259.0246      27.0546      59.6399 -0.00027433202  0.013490117 1.7329002e-05  0.024001156 
 1520000    343.11665    455.57117   -183.07289   -183.07483    308.57828    5413.2011      27.0546      59.6399 0.00024599221 -0.0099707553 -0.00010444492 -0.0019996181 
 1521000    341.46835    453.38296    -160.3691   -160.37033    245.83092    5325.9317      27.0546      59.6399 -0.00036632396  0.021395313 -0.00010039356 -0.0064983665 
 1522000    335.93588    446.02188   -273.70801   -273.74477    255.39679    5253.1898      27.0546      59.6399 0.00018502969  0.036137233 0.00057290886 -0.012011959 
 1523000    338.24336    449.05178    230.21479    230.09973    307.79728    5339.9192      27.0546      59.6399 -0.00014571352 -0.027243707 -0.00042766855 -0.016071047 
 1524000    330.35227    438.49663    189.29098    188.99602    398.95002    5313.6744      27.0546      59.6399 0.00054085732 0.0010434597 -0.00070826138 -0.00028712844 
 1525000    342.06836    454.15836   -53.924724   -53.975127    369.53981    5458.5671      27.0546      59.6399 0.00031510574 -0.029766867 0.00068906812  0.021116802 
 1526000    343.19438    455.65501    213.10158    213.05484    284.61834    5390.3976      27.0546      59.6399 6.4128031e-05 0.0026138556 6.5278176e-05  0.016450227 
 1527000    340.07754    451.53004    323.77719    323.76146    276.66632    5336.0757      27.0546      59.6399 -0.00021742124 -0.016412517 -0.00020764651  0.022768421 
 1528000    338.96244    450.02857   -121.82126   -121.88535    317.62261    5360.4425      27.0546      59.6399 -0.00068943342 0.0044520122 -0.00018970772  0.018491924 
 1529000    345.37711    458.54187   -407.36041   -407.43321    279.81883    5418.0712      27.0546      59.6399 0.00055892602  0.014837306 -0.00066264286   0.02102588 
 1530000    337.50232    448.09999     158.6454    158.60467    396.65683    5417.7541      27.0546      59.6399 0.00073594055 0.0071240887 -0.00048564464 -0.011345723 
 1531000    335.25685    445.12941    21.747857    21.732161    272.87555    5260.5665      27.0546      59.6399 -0.00051747457  0.028998589 -0.00010937826 -0.0055647548 
 1532000     339.8204     451.1909    175.00408    174.99362    236.48511    5292.0689      27.0546      59.6399 0.00040505121 0.0036707027 -9.2859207e-05 -0.016408608 
 1533000     345.6191    458.88567    76.964202    76.943471    213.07985    5354.9322      27.0546      59.6399 -0.00014951029  0.027783888 -0.00029138919 -0.031060283 
 1534000    337.49255    448.01723   -45.247631   -45.449793    315.38542    5336.3373      27.0546      59.6399 0.00021385249  0.020294461 0.0007712477 -0.015561979 
 1535000    352.19941    467.63064    386.53615    386.53388     219.5895    5459.3387      27.0546      59.6399 -0.00016002538 -0.013382947 0.00088206053  0.036449412 
 1536000    340.69704    452.34682   -327.89202   -327.92109    191.75125    5260.3771      27.0546      59.6399 0.00047418624 -0.014148476 9.8569423e-05 -0.0074858417 
 1537000    334.96114    444.74128   -292.05388   -292.05916    252.68147     5235.973      27.0546      59.6399 0.00018907556 -0.0076875244 -8.4425354e-05   0.01257141 
 1538000    342.60138    454.87996    97.503251    97.484987    271.73733    5368.6944      27.0546      59.6399 0.00027974266 -0.019093586 -0.00045095442  0.011686332 
 1539000    338.51539    449.44682   -258.78458   -258.82133    369.90845    5406.0774      27.0546      59.6399 -0.00031735589 0.0015311506 -0.00031740523  0.011084622 
 1540000    340.89823    452.61376   -169.44953   -169.47902    319.99708     5391.616      27.0546      59.6399 2.290454e-05 0.0045343229 -0.00029892857 -0.0019687913 
 1541000    342.55785    454.76976    26.925481    26.785991    264.93465    5361.2441      27.0546      59.6399 -2.0533572e-05 -0.013316745 0.0003523278  0.016066741 
 1542000    335.23219    445.09864   -85.295823   -85.306953    334.70118    5322.0252      27.0546      59.6399 -0.00021557879 -0.018686786 -0.0012132592 -0.0016756843 
 1543000    346.58465    460.09094    127.09829    126.90007    153.85621    5310.0733      27.0546      59.6399 -0.0013587684  0.024943297 -0.00050273812  0.029877816 
 1544000    334.05697    443.50929   -113.52098   -113.59908    319.53955    5289.3796      27.0546      59.6399 -0.00011719787  0.012637767 -0.00071417565 -0.016865735 
 1545000    340.62631    452.02778    317.69247     317.1427    160.76652      5228.34      27.0546      59.6399 -0.00039533311 -0.013564301 -0.00088947159 -0.021061416 
 1546000    343.12783    455.48385    112.70986    112.47161    103.22543    5208.0146      27.0546      59.6399 0.00047408809 -0.014232287 0.00061083345 0.0012847292 
 1547000    337.43011    448.01386    130.54725    130.52908    274.45524    5294.4782      27.0546      59.6399 0.00044896725 0.0096757824 -0.00042289228  0.012637243 
 1548000    334.18994    443.69882    2.8841774    2.8361016    298.25472    5270.0729      27.0546      59.6399 -0.00050501777 -0.014788948 3.6728287e-05 -0.013911104 
 1549000    338.45322    449.24715    -116.7041   -117.01178    222.03761    5257.2817      27.0546      59.6399 1.7097968e-05  0.015585773 0.00037772122 -0.00012315262 
 1550000    337.95317    448.60569   -213.12869   -213.38434    261.11473    5288.9194      27.0546      59.6399 -0.00012635518  0.025078148 -0.00034828577 0.0047052508 
 1551000    341.13533    452.92729    226.01726    225.98482    203.13253    5278.2788      27.0546      59.6399 -1.3299354e-05 -0.023653997 0.00064608677 -0.0054350008 
 1552000    331.33253    439.91512   -214.46213   -214.48658    193.90936    5123.2173      27.0546      59.6399 0.00085296268 0.0013595559 0.00091914067  0.011043561 
 1553000     336.0082    446.11001    161.84081    161.78581    163.64782    5162.5167      27.0546      59.6399 0.00010045363  0.021544155 -0.00053129708   0.01240923 
 1554000    340.03624     451.4818   -105.13189   -105.13238    77.361331    5136.1563      27.0546      59.6399 0.00019747499 -0.013059063 -0.00017650871 0.0093424848 
 1555000     337.1742    447.66022    39.096652    39.046392    204.70613    5220.9219      27.0546      59.6399 -0.0012274924  0.032995716 0.0005040098 -0.0055563074 
 1556000    344.07163    456.83896    296.05781    296.05545    126.17902    5245.0094      27.0546      59.6399 -0.00033103011  0.013500324 -0.00052446255 0.0018983745 
 1557000    341.33933    453.18961   -100.04228   -100.09449    259.45974    5337.6411      27.0546      59.6399 -0.00073380293 -0.0030387468 0.0003778113 -0.0088938722 
 1558000     341.2397    453.07395    41.042111    41.028355    208.34353    5285.0426      27.0546      59.6399 0.00064411579 0.00039272697 9.1273914e-06 -0.029873037 
 1559000     336.8603    447.23015   -186.48442   -186.56541    60.756404    5072.3022      27.0546      59.6399 0.00069894853  0.003725141 0.0014827175 0.0093920503 
 1560000    337.99144    448.49212    111.06512    110.42926    229.75355    5258.1275      27.0546      59.6399 -0.00047812575 -0.0031465831 0.00016193091 -0.017858233 
 1561000      336.632    446.91887   -203.83354   -203.93338    177.39263    5185.5419      27.0546      59.6399 1.5768763e-05 -0.024759113 -0.00045683138 0.0083121154 
 1562000    332.69392    441.69921    107.86037    107.78159    161.17005    5110.7317      27.0546      59.6399 0.00014312026 0.0005311476 -0.00025589993 -0.0078322078 
 1563000    343.09486    455.47838    141.73728    141.58762    228.42636    5332.7251      27.0546      59.6399 -0.00030054583 0.00051857667 -0.0010507965 -0.018749775 
 1564000    339.66585     450.9901    364.93838     364.9381    188.46142    5241.7459      27.0546      59.6399 -0.00043851293 -0.016138412 -2.5995211e-05 -0.002917281 
 1565000    338.29014    449.16329   -639.66518   -639.66596    167.88283    5200.7006      27.0546      59.6399 -0.00013397278 0.0080603034 0.00013599697 -0.022466182 
 1566000    346.70328    460.32619   -63.052964   -63.071374     243.2224    5401.2044      27.0546      59.6399 -0.00024609315 0.0079862076 -0.00021927033 -0.011335721 
 1567000    342.31718    454.45747    91.066543    90.943831    224.70325    5317.4323      27.0546      59.6399 -0.00015855812  0.018181598 -4.8825571e-05 -0.016650028 
 1568000    336.21053    446.30994   -116.98566   -117.19959    202.86213    5204.7411      27.0546      59.6399 -0.0002319275 -0.018264726 -0.0001156763 -0.0018047286 
 1569000    347.22868    461.03079      32.6521    32.649902     21.58913    5187.3876      27.0546      59.6399 -0.00017900201 -0.0057059509 7.0226505e-05  0.028444857 
 1570000    338.70642    449.69783   -171.35622   -171.39907    210.25761    5249.2686      27.0546      59.6399 0.00097583902 0.0043516899 -0.00023894869 -0.018927372 
 1571000    345.55871    458.72721   -354.75763   -354.95941    187.62328    5328.5772      27.0546      59.6399 -0.00069384315 -2.2197767e-05 -0.0012618082  0.010748328 
 1572000     333.7125    443.08291    -215.2591   -215.26553    322.28504    5287.0003      27.0546      59.6399 -0.0014536206 -0.0070383043 0.00061293469 -0.023736215 
 1573000    343.75045    456.40713   -28.735266   -28.750079    215.22731    5329.2793      27.0546      59.6399 -0.00014072824 0.0051459843 -0.00010142102 -0.010346868 
 1574000    341.59674    453.55142     105.9072    105.90133     279.9025    5361.9133      27.0546      59.6399 0.00029514767   0.03144864 0.00017534675 -0.0016890294 
 1575000    339.30304    450.44773    488.63959      488.499    225.29871    5273.1857      27.0546      59.6399 1.7184985e-05 -0.0062170153 0.0002987234 -0.019165858 
 1576000    345.85284    459.19767   -189.45238    -189.4693     266.0933    5411.4231      27.0546      59.6399 -0.00097264573  0.033097524 -0.00032508413 0.0004087614 
 1577000    341.14988    452.94515    -57.44236   -57.478183    212.14223    5287.5051      27.0546      59.6399 -0.00024024842 -0.010246302 0.00049903214 -0.0074907133 
 1578000     344.8662    457.84221    120.01743     119.8954    173.11354    5303.7648      27.0546      59.6399 0.00041523956 -0.018113412 -0.00018749201 0.0064994781 
 1579000     340.0921    451.54215    192.65913    192.62669    140.62208     5200.248      27.0546      59.6399 -0.00019991745 0.0032221561 0.0012479042  0.021406125 
 1580000     335.3654    445.16662   -140.27643   -140.53944      244.356    5233.6619      27.0546      59.6399 0.00051125628 -0.011592584 -5.027601e-06  0.011669463 
 1581000    333.78456    443.15484   -220.60545    -220.6668     267.6919    5233.4792      27.0546      59.6399 0.00035444345 -0.0040508238 0.00066285509 0.0023378522 
 1582000    337.66278    448.13887   -202.52989    -202.9735    223.06828    5246.5528      27.0546      59.6399 4.2905354e-05 0.0085349913 -0.00015986573   0.02689564 
 1583000    341.75124    453.68757   -114.15271   -114.31816    114.73424    5199.0437      27.0546      59.6399 0.00037673077 -0.014719046 -0.00061395213  0.013413113 
 1584000    338.12409    448.90949   -11.398785   -11.476662    209.70452     5240.052      27.0546      59.6399 -7.4706026e-05 -0.031551686 -0.00054175801 0.0075009415 
 1585000    341.82663    453.80969   -49.721421   -49.835923    222.70705     5308.138      27.0546      59.6399 -0.00063579623  0.010892554 -0.00066233723  0.012276739 
 1586000    341.84227     453.8782    280.32319    280.31914    192.09695    5277.7606      27.0546      59.6399 -0.00038359053 0.0068890002 -0.00044365293 0.0067581262 
 1587000    337.78385     448.3615     114.7917    114.49122    215.87414    5241.1598      27.0546      59.6399 -4.7018985e-05 0.0032153518 -0.00051077993 -0.0046664857 
 1588000    342.56934    454.83721    125.98919    125.97043    304.71786    5401.1983      27.0546      59.6399 5.3368167e-05  0.020903959 -0.00051121834 0.0022499505 
 1589000    340.64999    452.29627      206.374    206.37252    233.22876    5301.1546      27.0546      59.6399 0.00054966758 -0.021023102 0.00084944175  0.035029044 
 1590000    342.93968     455.0038   -110.75175   -111.52256    224.51619    5326.5063      27.0546      59.6399 -5.7568744e-05 -0.0097574006 -0.00075792781   -0.0102174 
 1591000    344.38598       457.24   -254.84986   -254.89002    210.56876    5334.0758      27.0546      59.6399 -0.00028543807  0.045423938 -1.3816464e-05  0.013277418 
 1592000    338.46917    449.38461   -109.39461    -109.4333    228.03166     5263.513      27.0546      59.6399 0.00012842928 -0.013989646 -0.00032486818 -0.023990558 
 1593000    336.02167    446.15031   -88.666719   -88.669895    188.65175    5187.7211      27.0546      59.6399 -0.00098992687  0.021316459 0.00056562269  0.002170315 
 1594000    337.21814    447.68678    20.626613    20.502847    195.15414    5212.0237      27.0546      59.6399 -0.0011024204  0.039726784 -0.00018039903 0.00040231744 
 1595000    344.14732    456.92779   -269.95505    -269.9844    163.92345    5283.8798      27.0546      59.6399 0.00021017494 -0.00064674451 -8.7135057e-05 0.0060071826 
 1596000    336.52149    446.78721   -261.58043   -261.64543    158.95862    5165.4639      27.0546      59.6399 -0.0001581232 -0.018444363 -0.00026158673  0.014102471 
 1597000    338.38691    449.28559   -201.85717   -201.87226    206.32652     5240.584      27.0546      59.6399 0.0005749373  0.015222124 0.00046701214 -8.4477743e-05 
 1598000    342.47142    454.70509   -174.47761   -174.50127    155.60349    5250.6272      27.0546      59.6399 -0.00074834619 0.0043066392 0.00042001477 -0.022756449 
 1599000    333.70333    443.02963    72.410191    72.308699    224.43182    5189.0107      27.0546      59.6399 -0.00013884503 0.0012275033 -0.00038366226 -0.00084129342 
 1600000    334.21583     443.7226   -111.63717   -111.70973    145.14505    5117.3484      27.0546      59.6399 -0.00034073822 0.0011919288 0.0004410988  0.045547254 
 1601000     344.9922    458.05754   -107.50428   -107.51524    195.72269    5328.2486      27.0546      59.6399 -0.00042789348 -0.015137749 0.0010835147  0.032976433 
 1602000    340.55932    452.15146   -18.861494   -18.919469    194.31832    5260.8953      27.0546      59.6399 -0.00095369996 -0.007264469 0.00034660566 0.00041790827 
 1603000    333.04435    442.11497    56.216019    56.022681    262.73454    5217.5097      27.0546      59.6399 0.00019607054  0.014220508 0.00038220955   0.02918252 
 1604000     343.5687    456.15795    49.738833    49.705833    60.013891     5171.362      27.0546      59.6399 -0.0002633668 -0.011155188 0.00029512026 -0.00077117085 
 1605000     339.9623    451.34942   -142.71519   -142.79477     211.3747    5269.0696      27.0546      59.6399 -0.00028342852 -0.023621088 -0.0003668499 0.0027432231 
 1606000    347.28778    461.10404    137.64742    137.63312    262.41532    5429.0931      27.0546      59.6399 -1.9761631e-05  0.029043446 -5.1383984e-05  0.025079977 
 1607000    335.79088    445.83901    5.7126813    5.6982538    266.04517     5261.681      27.0546      59.6399 0.00012673099 -0.017164447 -0.0015703543  0.012787256 
 1608000    339.46502    450.70285    42.448926       42.401    205.19072    5255.4875      27.0546      59.6399 0.00016587192 0.00093933539 -0.00083660534  0.017365914 
 1609000    344.48697    457.38093   -395.93748   -395.96182    284.97937    5409.9888      27.0546      59.6399 -0.00013469802 0.0094137756 0.00023054995  0.005994929 
 1610000    343.97968    456.67284   -386.23857   -386.34277    134.34183    5251.8042      27.0546      59.6399 0.0003047149 -0.0060192463 -0.00064571902 -0.0042639696 
 1611000    342.27515    454.36434   -21.979467   -22.188503    195.72182    5287.8255      27.0546      59.6399 -0.0003615628 -0.016370234 4.3127093e-05 -0.0080678357 
 1612000     334.8568    444.59568   -304.71962   -304.74124    300.59096    5282.3303      27.0546      59.6399 3.5567376e-05 0.0084790769 5.7547015e-05 0.0073072893 
 1613000    343.63402    456.21859    100.28447     100.1911     162.0256    5274.3456      27.0546      59.6399 0.00033463826  0.013545736 8.8342924e-05  0.028346548 
 1614000    341.09447    452.77727    311.85263    311.59866    107.90669    5182.4452      27.0546      59.6399 -0.00074320978 -0.0036370938 8.1400909e-05 -0.023808672 
 1615000    341.29314    453.10602    212.44063    212.33691    212.22105    5289.7153      27.0546      59.6399 -0.00034912331  0.010025024 0.00033637511 -0.024918193 
 1616000    342.70652    455.01352     186.3474    186.31514    166.60521    5265.1266      27.0546      59.6399 0.0001144883  0.011196926 -0.00023454305 0.0096285329 
 1617000    342.62481    454.91644    75.853694    75.847834    254.48704    5351.7927      27.0546      59.6399 -0.00010379776 -0.0096741301 -4.0410782e-05  0.017104733 
 1618000    343.20228    455.68571    205.17195    205.17195    156.21473    5262.1116      27.0546      59.6399 0.00050730337 0.0091388127 -0.00038411154 -0.0017101478 
 1619000    345.20645    458.31536   0.27128946   0.19871895    133.98564    5269.6989      27.0546      59.6399 0.0002100569  0.010790134 -0.00096749235  0.034722471 
 1620000    340.73875    452.39944    401.65145    401.61601    182.35905    5251.6054      27.0546      59.6399 -0.00055360752 -0.0028494175 -0.00042272498 -0.030095914 
 1621000    341.41865    453.25394    100.72955    100.58252      267.894    5347.2554      27.0546      59.6399 9.4390476e-05  0.010436819 -7.6150186e-05 0.00010763042 
 1622000    350.99193    466.02016   -261.62835   -261.64738    231.07651    5452.8617      27.0546      59.6399 0.00054350665 -0.022066394 -0.00028952998 -0.020557753 
 1623000    345.66097    458.94762    -156.3202   -156.32623    156.09262    5298.5679      27.0546      59.6399 0.00032665825 0.0043726941 -0.00036450846 0.0054353983 
 1624000    337.22673    447.73073   -91.702379   -91.750854    282.18063    5299.1779      27.0546      59.6399 0.00032632379 -0.033201033 -0.00045563312  0.006386408 
 1625000    336.20682    446.35217   -216.24885   -216.35375    307.62786    5309.4517      27.0546      59.6399 0.00066955839  0.019689034 -0.00046346037   0.01177921 
 1626000    337.40178    447.96121   -36.993233   -37.046194    325.09292    5344.6944      27.0546      59.6399 -0.0002066113  0.014372981 0.00045863849 0.0045933872 
 1627000    349.26585    463.63103    291.87999     291.6358      292.031     5488.137      27.0546      59.6399 -0.00051539977  0.020750227 0.00020427824 0.00032419053 
 1628000    341.03669    452.60415     70.28894    69.811979    292.30964    5365.9886      27.0546      59.6399  0.001235665   0.03430327 -0.0006725208 -0.0015140262 
 1629000    345.41554    458.51184    253.01508    252.75484    201.09399    5339.9179      27.0546      59.6399 2.1548371e-05  0.024755503 -0.0003885841 -0.0024072767 
 1630000    346.60891    460.08263   -175.55227   -175.84424    398.18882    5554.7669      27.0546      59.6399 -7.3023145e-05  0.011675993 -0.00066139157 0.0083094156 
 1631000     339.6011    450.89847    14.467961    14.454594    360.48203    5412.8033      27.0546      59.6399 -0.00027449299  0.016946102 -0.00065822171  0.033638072 
 1632000    346.53523    460.08959    124.56022    124.51065    280.78075    5436.2626      27.0546      59.6399 -0.0007681115 -0.012669595 0.00054815033 -0.010810259 
 1633000    337.83873    448.56205    5.0920376    5.0868868    316.57444    5342.6766      27.0546      59.6399 -0.00013619156 -0.0064479202 -0.00028650292 -0.016976356 
 1634000    338.04215    448.83433   -69.144037   -69.144119    229.87707    5259.0056      27.0546      59.6399 9.2582028e-05 0.0087514229 -0.0002952546  0.025114307 
 1635000    340.81102    452.47656   -468.57896   -468.65797    327.51941     5397.841      27.0546      59.6399 -0.00024971053 0.0065901836 0.00055943694   0.01087758 
 1636000    343.59143    456.09362    326.18187    325.93026    260.91323    5372.5995      27.0546      59.6399 -0.00033904684 -0.002411263 0.00083059386 -0.012555231 
 1637000    339.58358    450.81773    181.84594    181.69962    240.85557    5292.9162      27.0546      59.6399 -0.00035692327  0.015919864 6.6704521e-05 -0.0090021097 
 1638000    346.71215     460.3453   -111.58773   -111.58915    276.41012     5434.524      27.0546      59.6399 0.00076468915   0.00605941 -0.00053775586 2.6152907e-06 
 1639000    340.60543    452.23757   -21.650136   -21.650532    246.59713      5313.86      27.0546      59.6399 0.00019955363 -0.0075149981 0.00072473374  0.010512234 
 1640000     340.5041    452.07127   -79.686173   -79.760039    275.30212    5341.0575      27.0546      59.6399 -0.0010987166  0.028224019 -0.00030970405 -0.0096627626 
 1641000     340.9062    452.61566    94.890168    94.840593    320.60475    5392.3422      27.0546      59.6399 -0.00027964481 -0.00017389472 -9.4099788e-05 -0.0059754194 
 1642000    336.84585    447.24569     109.1032    109.10254    271.52248    5282.8533      27.0546      59.6399 -0.00022949202 -0.014067097 -0.00035327174  0.037742875 
 1643000    343.91955    456.63446    427.90867    427.90034    318.04155    5434.6094      27.0546      59.6399 -0.000468941 0.0044175263 -0.0004296281 0.0047198112 
 1644000    340.54754    452.16027   -36.452848   -36.454285    135.78665    5202.1884      27.0546      59.6399 -0.00014123693  0.015997483 0.00082405253  0.016681195 
 1645000    341.47758    453.39477    122.44276    122.44052    329.73873    5409.9768      27.0546      59.6399 -0.00033738576 -0.0031899893 0.00014345113 -0.026293105 
 1646000    335.82154     445.8615   -187.09412   -187.15069    272.17216    5268.2641      27.0546      59.6399 0.00064153276 -0.0015367867 0.00026304981 0.0061715204 
 1647000    338.79325    449.82619   -143.09198   -143.10458    213.22137    5253.5241      27.0546      59.6399 0.00040940881 0.0012781669 0.00063178343 7.6589758e-05 
 1648000     345.0761    458.13282   -425.61475   -425.70922    287.57944    5421.3535      27.0546      59.6399 8.5983088e-05 0.0094225585 -0.00041549692  0.015374107 
 1649000    345.47047    458.66302    303.17474    303.09547    238.33201    5377.9733      27.0546      59.6399 -0.00012758312 -0.015831396 2.5016306e-05 0.0091867727 
 1650000    345.61867    458.87451   -149.20986   -149.25511    294.04969    5435.8957      27.0546      59.6399 0.00019606633  0.028010964 -0.00011674027 -0.00042990041 
 1651000    342.03731    454.13133   -96.011231   -96.028802     130.4496     5219.015      27.0546      59.6399 4.1850268e-05 -0.016684897 0.0010526262  0.012959905 
 1652000    341.84054    453.84384   -10.098558   -10.176787    265.58582    5351.2238      27.0546      59.6399 0.00036950163 -0.0062899727 0.00036159506 -0.024066074 
 1653000    343.65012     456.2643    20.751433    20.714361    283.52966    5396.0891      27.0546      59.6399 -8.1669609e-05 0.0022038228 -7.4570655e-05  0.019299927 
 1654000    338.77916    449.79196   -224.32859   -224.37708     383.8156    5423.9086      27.0546      59.6399 0.00034202675  0.020819627 9.1748559e-05 -0.027776258 
 1655000    342.59903    454.88399    197.82228    197.82052    199.35794    5296.2801      27.0546      59.6399 -0.00014506995 -0.013933593 0.00036606092 -0.013413283 
 1656000    336.80051    447.17694    66.558375    66.537922     280.2849    5290.9412      27.0546      59.6399 -0.00079420387 0.0018351358 -0.00030396566  0.012734019 
 1657000    330.43585    438.72588    159.30474    159.28339    186.04429     5102.012      27.0546      59.6399 -0.00021488226  0.021876158 0.00017199069 0.0013518094 
 1658000    335.07602    444.74462   -45.475396   -45.825753    147.65763    5132.6583      27.0546      59.6399 -0.00036238744 -0.0025292382 0.00057661871 0.0048024164 
 1659000    333.39694    442.59095   -224.29685   -224.47206    84.983777    5045.0044      27.0546      59.6399 0.00017829137    0.0233974 0.00025707716 -0.009238438 
 1660000    336.85479    447.25416   -46.538918   -46.547436    211.83268    5223.2964      27.0546      59.6399 -0.0003951061 -0.020287767 0.00035478169  0.024573966 
 1661000    341.71224    453.69714    95.384614    95.361069    174.85461    5258.5838      27.0546      59.6399 -0.00024459773 -0.012615413 -0.00024153815 -0.014466071 
 1662000    335.89733    445.90416    17.597823    17.407168    213.42559    5210.6451      27.0546      59.6399 -0.00011414853 -0.0063478926 0.00054938218 -0.0026741387 
 1663000     342.5975    454.84435   -124.18001   -124.26873    117.25598    5214.1553      27.0546      59.6399 -0.00095966001   0.01167046 -0.00055771997  0.027925672 
 1664000    345.64353    458.84803    145.30513    145.12233    3.3686347    5145.5844      27.0546      59.6399 0.0006542126  0.016017226 -0.00025412916  0.019903933 
 1665000    340.83305    452.53072    212.84402    212.82263    120.62764    5191.2769      27.0546      59.6399 0.00048691301 -0.014697503 0.00029519834 0.0097702281 
 1666000     347.2109    460.94807   -159.66237   -159.80132    212.40662    5377.9406      27.0546      59.6399 -0.00016784826 0.0081752012 -0.0003472538  0.015806124 
 1667000    342.82562    455.16349    396.25164     396.2005    93.744547    5194.0378      27.0546      59.6399 -0.00053586744 0.0074649593 0.0001099081  0.015043562 
 1668000    339.91969    451.32723   -89.167417   -89.167489    87.945327    5145.0064      27.0546      59.6399 -0.00025798024 0.0052765767 0.0012155011  0.039012327 
 1669000    342.19712    454.34136    390.93189    390.90934    182.42729    5273.3701      27.0546      59.6399 -0.00055276991 0.0087418232 -0.00023856347 -0.025813479 
 1670000    342.14244    454.21196   -229.89555   -230.04947    149.59233    5239.7216      27.0546      59.6399 0.00023280402 0.0049335592 -0.00037932684 -0.0019071089 
 1671000    340.28658    451.62166     330.7482     330.3024    244.99256    5307.5119      27.0546      59.6399 0.00023613148  0.036058403 0.00057115299 -0.010116528 
 1672000     346.3936    459.76094   -157.28292    -157.6577     225.4887    5378.8635      27.0546      59.6399 9.4682219e-05  0.012876013 9.7029106e-05 -0.013410851 
 1673000    339.17279    450.30136    338.17061    338.09148    203.48292    5249.4322      27.0546      59.6399 0.00031533086  0.046152216 0.00021060726 -0.0051406617 
 1674000    348.23009    462.24036    153.85461    153.57471    274.33013    5455.0268      27.0546      59.6399 0.00059656657 -0.015898809 0.00075408417 -0.013450166 
 1675000    342.91073    455.25208    404.40373    404.29611    296.59949    5398.1589      27.0546      59.6399 0.0004018364 0.0067304924 -0.00015434833  0.033084006 
 1676000     336.2829    446.24532    95.233555    94.647899    312.45215    5315.4078      27.0546      59.6399 -9.1424556e-05 -0.0049653459 0.00032973348  0.010041712 
 1677000    333.77745    442.87636    63.423577     62.73993    286.53041    5252.2119      27.0546      59.6399 4.569491e-05  0.010707996 -8.5453138e-05 0.00032329098 
 1678000    344.25246     457.0533   -202.50086   -202.56281    428.33771    5549.8583      27.0546      59.6399 -0.00063293685 -0.025893124 -9.048256e-05 -0.020179616 
 1679000    337.08438    447.56259   -61.766762   -61.766986    322.54704    5337.4265      27.0546      59.6399 0.00034815903 -0.012157167 0.00018002014 -0.025351817 
 1680000    343.92584    456.50555    35.611607    35.285803    404.95634    5521.6177      27.0546      59.6399 -2.3756579e-05  -0.03938355  0.000964708  0.012683369 
 1681000    343.73769    456.34698   -165.32424   -165.43901    328.04787    5441.9102      27.0546      59.6399 -0.00078903445   0.06523831 9.1209914e-05 -0.038908424 
 1682000    341.24319    452.93993   -223.41653   -223.75101    199.36382    5276.1148      27.0546      59.6399 -0.00011545616 -0.041209207 0.00016684988  0.029796797 
 1683000    349.79694    464.43715    57.262533    57.251881    296.59866    5500.6058      27.0546      59.6399 0.00024365844 -0.0059136098 -0.00033346158 -0.0075872449 
 1684000    333.57801    442.88898     78.71424    78.672294    348.30214    5311.0166      27.0546      59.6399 0.00040504663 -0.017093912 -0.00016802654  0.014491243 
 1685000    341.43674    453.34142    171.32019    171.31997    329.81896    5409.4495      27.0546      59.6399 0.00065931379  0.029377114 7.2776307e-05  0.015103817 
 1686000    336.73012    447.06619    272.85487    272.79442    389.91944    5399.5285      27.0546      59.6399 6.3332665e-07 0.0040632325 -0.00035348055 0.00092365988 
 1687000    343.68115    456.31937    638.61107    638.60608    359.57051    5472.5917      27.0546      59.6399 -7.499658e-05 -0.013209581 -0.00031338703 -0.018652091 
 1688000    342.67271    454.98247   -18.100317   -18.100562    290.91733    5388.9356      27.0546      59.6399 -0.00019318867  0.027332484 -0.00033873195 -0.013973135 
 1689000    337.81672    448.52985    173.92694    173.91491     286.4673    5312.2419      27.0546      59.6399 -0.0003228444 -0.0060766073 0.00018538372 -0.0072009815 
 1690000    339.08825    450.20504   -52.957306   -52.999599    526.50371    5571.1952      27.0546      59.6399 0.00013435063 -0.0047664921 -0.00040921769 -0.015159032 
 1691000    336.59102    446.88941    113.58572    113.54358    417.05673    5424.5964      27.0546      59.6399 0.00024960268  0.013156079 -5.1717321e-05 -0.023781555 
 1692000    339.81537    451.12781   -107.67913   -107.82009     303.6013    5359.1103      27.0546      59.6399 -0.00018794463  0.013875842 0.00032588593   0.00531653 
 1693000    335.03073    444.83483   -154.10082   -154.10344    317.57367    5301.9005      27.0546      59.6399 0.00072935275 0.0075853752 -0.00019234113  0.022837313 
 1694000    339.24518    450.28433   -77.642554   -77.983399    270.32268    5317.3489      27.0546      59.6399 6.6592852e-05 -0.00098438387 0.00056159789 -0.0004250844 
 1695000    339.09064    450.21359   -151.55637   -151.58622    369.51068    5414.2378      27.0546      59.6399 0.00089835348 0.0061760015 0.00025041861  0.019411225 
 1696000    340.63243    452.25776   -101.15642   -101.19305    222.68849    5290.3531      27.0546      59.6399 0.00045180953  0.022826119 0.0011314873 0.0060415896 
 1697000    339.33626    450.52193    150.00592    149.93494    400.62981    5449.0111      27.0546      59.6399 -0.00052931662 -0.014799418 -0.00024826319 0.00081581191 
 1698000    344.37496    457.23761    294.44111    294.42926    345.51767    5468.8608      27.0546      59.6399 0.0003366441  0.026348993 -0.00057681086  0.036094525 
 1699000    337.25856    447.71151   -119.16224   -119.35292    249.05433    5266.5251      27.0546      59.6399 -0.00015350793 0.0081666993 0.00014053684 -0.021135731 
 1700000    334.54351    444.15457   -72.359094   -72.438885    297.14081    5274.2193      27.0546      59.6399 0.00013163644 -0.011411601 -0.00073599338  0.013019008 
 1701000    345.62763    458.90579    631.56801    631.56761     207.1336     5349.113      27.0546      59.6399 -0.0001467752  0.019277111 0.00047302546 -0.013349455 
 1702000    334.57442    444.17934   -80.595754   -80.713171    351.81235    5329.3507      27.0546      59.6399 0.0003383516 -0.012988583 -0.00011072749 -0.0057604924 
 1703000    337.34566    447.61779    182.92696    182.25201    294.60056    5313.3671      27.0546      59.6399 0.00040815718  0.029228719 -3.2376477e-05 -0.017889766 
 1704000    342.92159    455.25331    18.486983    18.348871     262.2224    5363.9434      27.0546      59.6399 0.0006016143  -0.01371715 -4.8242945e-06 -0.0095215589 
 1705000    347.78044    461.71188   -137.15163   -137.27297    311.65425    5485.6614      27.0546      59.6399 0.0003781891 -0.0081409268 -0.00034006634   0.01227959 
 1706000    338.83138    449.80558   -142.23225   -142.40964    381.91173    5422.7818      27.0546      59.6399 0.00066959321 -0.0030149142 -4.650124e-05 0.0048740107 
 1707000    336.67034    446.91131   -128.23507   -128.47016    255.60685    5264.3265      27.0546      59.6399 -9.6611407e-05 -0.013457477 -0.00049420029 -0.019410133 
 1708000    335.13484    444.96613   -299.76411   -299.78277    229.43432    5215.3101      27.0546      59.6399 -0.00065721744 -0.0027837541 -7.1813507e-06 -0.016483142 
 1709000    345.28536    458.44318    303.82907    303.80978    245.84788    5382.7352      27.0546      59.6399 -0.00027523192  0.032201255 -0.00080705874 0.0012617366 
 1710000    342.56985    454.82393    275.80759    275.75654    188.52481    5285.0128      27.0546      59.6399 -6.2096345e-05 -0.0098514022 -0.00047539549 -0.0073133406 
 1711000    342.28333    454.46177   -242.03985   -242.04866    189.73259     5281.958      27.0546      59.6399 -0.00038519293  0.034009949 -0.00039496092 -0.0026454964 
 1712000     346.0713    459.48709    110.87851    110.86011    188.38124    5336.9612      27.0546      59.6399 8.2372698e-05 -0.022065357 0.0013078248 0.0034976092 
 1713000    339.78877    451.13966   -139.55005   -139.58189     231.7908    5286.9041      27.0546      59.6399 -0.00065269386  0.022937515 0.00079307901 -0.022414487 
 1714000    337.96483    448.72894   -243.08882    -243.0952    291.71725    5319.6953      27.0546      59.6399 1.8962357e-05 -0.0048547589 0.00012260742 -0.015779217 
 1715000    337.91373    448.65239    32.123384    32.096882    255.48303    5282.7009      27.0546      59.6399 -0.0010800465  0.012955346 -0.00035984164 0.0014377772 
 1716000    341.34122    453.17317    10.855117    10.759061    17.407704    5095.6172      27.0546      59.6399 0.00021385038 -0.0034986921 0.0010173388  0.034388536 
 1717000    346.21932    459.68849    15.378588    15.371467    155.17892    5305.9609      27.0546      59.6399 -0.00072915468 -0.023220286 -0.000369003 -0.0060702451 
 1718000    331.66726    440.31371    91.657331    91.526842    256.61367    5190.9015      27.0546      59.6399 -0.00026889841 0.0025347246 -0.00022433027 -0.0032965182 
 1719000    340.84931    452.54863   -62.515102   -62.545003    86.041564    5156.9327      27.0546      59.6399 0.00017116875 0.0042707051 -0.00071176004 -0.022092951 
 1720000    344.99345    458.02944   -128.47524   -128.55501      180.846    5313.3904      27.0546      59.6399 -0.00057049777  0.043206776 -0.00042056033 -0.020246413 
 1721000    345.58336    458.84716   -302.42564    -302.4257    331.34449    5472.6652      27.0546      59.6399 6.2323563e-05 -0.0033321213 0.00034875776 0.0018703387 
 1722000    340.19164    451.67915     53.40426    53.382993    241.53471    5302.6416      27.0546      59.6399 -2.2014919e-05 -0.025755817 -2.3674185e-05  0.049904523 
 1723000    343.81158    456.43083    224.17413     224.0264    259.78885    5374.7504      27.0546      59.6399 0.00053582635 -0.0097510637 0.0001004064 -0.0041502234 
 1724000    334.38505    443.92839     325.4818    325.36552     285.1839    5259.9049      27.0546      59.6399 0.0017700038 -0.0025001302 -9.5065265e-05  -0.02488801 
 1725000    338.12628    448.92823   -84.947113   -84.988362    247.73391    5278.1139      27.0546      59.6399 -8.63187e-05 0.0061550106 0.00039736148 0.0045872664 
 1726000    345.60173    458.84279    157.73612    157.66957    181.99894    5323.5929      27.0546      59.6399 0.00074751362 -0.00026212274 -0.00019655389 -0.016987018 
 1727000    341.00613    452.75826   -51.626283   -51.652924    300.96291    5374.1872      27.0546      59.6399 0.00039311567 -0.012897864 -6.6433945e-05 0.00027586693 
 1728000    337.57668    448.20845   -45.876134   -45.894361    274.09863    5296.3021      27.0546      59.6399 -0.00049774116  0.044495476 0.00012419406  0.018600036 
 1729000    337.20674    447.72506    80.902641    80.902433     244.4162    5261.1161      27.0546      59.6399 -0.00039483261 -0.024872401 8.0939838e-05 -0.017434231 
 1730000    344.66716    457.56695   -218.78152   -218.92898    172.29679     5299.987      27.0546      59.6399 -0.00045096631 -0.026638939 -5.3497751e-05 0.0077377989 
 1731000    337.42602    447.96073    189.15825    189.02972    207.14794      5227.11      27.0546      59.6399 -0.00038980896 0.0053120215 0.00031016613 -0.024177818 
 1732000    343.09752    455.54521    176.88814    176.88489    344.48126    5448.8196      27.0546      59.6399 0.00018371444  0.015947894 0.00015663452  0.023857768 
 1733000    341.94538    453.84471    136.05876    135.66057    278.10304    5365.3007      27.0546      59.6399 -1.4955113e-05  0.014349902  0.000171944 -0.031845776 
 1734000    340.37414     451.8933   -604.63396   -604.72035    276.91322    5340.7352      27.0546      59.6399 -0.00032358784 -0.0031889851 -2.5006553e-05 -0.013239708 
 1735000    346.64328    460.12859    463.34141    463.05023    185.49242    5342.5817      27.0546      59.6399 0.00028592836 0.0056051009 0.00044865141   0.02266625 
 1736000    345.02357    458.10149   -142.96137   -142.96698     194.0994    5327.0919      27.0546      59.6399 -0.00039974016  -0.01700041 0.0006782463 -0.014548886 
 1737000    340.11688     451.4505    217.59032    217.26977    161.09071    5221.0854      27.0546      59.6399 -0.00021153988  0.018966869 0.00039983088 -0.032638297 
 1738000    336.25151    446.43943   -239.84892   -239.88921    360.99203    5363.4807      27.0546      59.6399 -0.00016967769 0.0096523043 0.00034325233 0.0047267217 
 1739000    342.15767     454.2421    146.36515    146.23415    309.43173    5399.7877      27.0546      59.6399 1.6612005e-05  0.016383985 -0.0002642394  0.016349032 
 1740000    340.27528    451.74326   -70.671043   -70.800897    226.70389    5289.0552      27.0546      59.6399 -7.8847646e-05 -0.020401668 0.00020950109 -0.00065089351 
 1741000    346.64079     460.2347   -83.531539   -83.569668    57.566557    5214.6189      27.0546      59.6399 -3.5018473e-05 0.0081845551 -0.00065146491 -0.026178148 
 1742000    346.89585    460.56354    97.782567    97.721751    309.50711     5470.354      27.0546      59.6399 -0.00063373448  0.025717783 -0.00015791295 -0.030503776 
 1743000    343.04973    455.36774    444.12238     443.8554    260.79396    5364.4213      27.0546      59.6399 -0.00069866067  0.013782253 0.0007474436 -0.021773058 
 1744000    343.36386    455.81623   -320.44089   -320.63521    163.93421    5272.2349      27.0546      59.6399 0.0001219026  0.018462544 0.00033659384 -0.016666373 
 1745000    343.29346    455.73778    115.83443    115.67486    269.45907    5376.7124      27.0546      59.6399 0.00035745181 -0.0022254608 0.00035879272  0.018291813 
 1746000    339.80455    451.12251    238.73012    238.61013    92.183497    5147.5315      27.0546      59.6399 0.00014950763 -0.021964407 5.1881619e-05 -0.0036578177 
 1747000     339.9504    451.30956   -22.796411   -22.931658    207.47267    5264.9905      27.0546      59.6399 -0.00015593701 -0.0085615256 -0.00030672524 -0.028597704 
 1748000    331.32565    439.90291   -303.42428   -303.45586    106.18715    5035.3928      27.0546      59.6399 0.0003338525 -0.0065461855 0.00045884024 -0.010655947 
 1749000    339.28028       450.46    273.97604    273.93377    190.32095    5237.8693      27.0546      59.6399 0.00013465972 0.0058847794 0.00016970448 0.0070817504 
 1750000    335.70553    445.70905   -155.12867   -155.18157    146.89923    5141.2652      27.0546      59.6399 -8.9333711e-05 -0.015004411 -9.0388164e-05  0.022728646 
 1751000    340.64325    452.22341   -35.936122   -36.085447     134.0289    5201.8545      27.0546      59.6399 -0.00038040571 -0.0070242519 0.0001544756 -0.011100158 
 1752000    344.39533     457.2075    99.252633    99.108568    197.00266    5320.6488      27.0546      59.6399 0.00016899562 -0.0085525287 0.00023362452 -0.011824191 
 1753000    342.11653    454.23537    223.99773    223.97752    135.88394    5225.6278      27.0546      59.6399 0.0003247548 0.0085525161 3.1542484e-06  0.011798703 
 1754000     338.5562    449.51626     72.85204    72.850602    156.08928    5192.8653      27.0546      59.6399 -0.00026300578 -0.003502287 -0.00025050981 -0.018476851 
 1755000    348.31787    462.46483    177.46526    177.43499    237.62118    5419.6238      27.0546      59.6399 0.00025241023 0.0041292002 -0.00030788111 -0.0026939244 
 1756000    336.67785    447.02289    31.098026    31.097978    228.22338    5237.0548      27.0546      59.6399 6.9244695e-05 0.0041460246 -0.00013697528 -0.0046432979 
 1757000    339.19998    450.28899    177.60957    177.41833    134.53302    5180.8868      27.0546      59.6399 -3.9384501e-05 -0.0025627374 0.00031036133 0.0097058787 
 1758000     342.5176    454.75634    529.24674    529.19979    181.11477    5276.8255      27.0546      59.6399 0.0004021711  0.049531859 0.00036331979  0.010748781 
 1759000    338.55807    449.51588   -83.627264   -83.635326    305.47032    5342.2742      27.0546      59.6399 -0.00041624825 0.0079237472 0.00017672968  -0.03811295 
 1760000    348.28422    462.42728   -34.421689   -34.435473    69.595223    5251.0973      27.0546      59.6399 -0.00012532926 -0.018402695 6.6463605e-05 0.0085518334 
 1761000    330.48633    438.73212    345.96261    345.80063    338.68135    5255.4002      27.0546      59.6399 -0.00028329524 0.0052268032 -0.00071076293  0.016028314 
 1762000    337.73646    448.42179    190.44673    190.43125    174.70288    5199.2834      27.0546      59.6399 0.00044641933 0.0084333642 -8.443769e-05 -0.033647291 
 1763000    337.61304    448.21442   -351.87944   -351.99554    175.83164     5198.576      27.0546      59.6399 -0.0004027807  0.033765058 -6.7605785e-05 -0.010749908 
 1764000    340.57192    452.16726   -104.53779   -104.59794     221.7174    5288.4818      27.0546      59.6399 7.6140877e-05 -0.0080788042 6.7212636e-05 -0.00042016855 
 1765000    336.99146    447.43249   -118.37268   -118.38846    256.08713    5269.5842      27.0546      59.6399 -0.00035431535 0.00087793377 -0.00072309786 -0.0087230608 
 1766000    337.21958    447.47823   -263.89286   -264.50341    197.93827    5214.8291      27.0546      59.6399 -0.00034254332 -0.017928884 0.00037622164 -0.029183034 
 1767000    340.65195    452.23444    30.573069    30.422541    254.99842    5322.9535      27.0546      59.6399 0.00045597161  0.045436214 -0.00030317944  0.014797897 
 1768000    338.62133    449.56162    83.680806    83.584248    70.058775    5107.8038      27.0546      59.6399 -0.00070495093 0.0013560981 -0.00028576993 -0.023090318 
 1769000    340.47533    452.05819   -32.872189   -32.887965    140.85955    5206.1869      27.0546      59.6399 0.00053115031 0.0022150219 -7.7415057e-05 0.00069552293 
 1770000     344.2479    457.07108    249.58131    249.57448    250.69315    5372.1459      27.0546      59.6399 0.00038192422 -0.0087064875 0.00065775324 -0.00039394386 
 1771000    339.89376    451.28573    81.448505    81.432058    36.637194    5093.3125      27.0546      59.6399 -0.00036618456  0.011131375 -7.5486847e-05 -0.039409042 
 1772000    344.84659    457.84341    399.80426    399.74524    103.07446     5233.434      27.0546      59.6399 -0.00049590491 -0.0058445801 -0.00070882431  0.011768533 
 1773000     343.0991    455.54451    79.136521    79.126794    98.318752    5202.6806      27.0546      59.6399 0.0010255804  0.020373751 0.00086543206 0.0061460048 
 1774000    340.55609    452.06173   -331.97949    -332.2351    187.93737    5254.4663      27.0546      59.6399 -0.00018503908 0.0023701176 0.00028375233 0.0085365957 
 1775000    337.91886    448.66934   -273.84374   -273.84679    85.422347    5112.7165      27.0546      59.6399 0.00028966977 0.0054493669 0.0005838706  0.014005569 
 1776000    343.05303    455.48226   -108.19164   -108.20385    97.470134    5201.1465      27.0546      59.6399 -0.00051742887 -0.027973194 -0.00042347391   0.02604348 
 1777000     338.4641    449.36186   -403.84945   -403.92522    39.034284    5074.4402      27.0546      59.6399 0.00015062199 0.0066501217 -0.00046472779 -0.013776985 
 1778000    342.51872    454.77248    140.90584     140.8928    84.420059    5180.1474      27.0546      59.6399 -0.00023047457 -0.0097287721 -3.2639261e-06 -0.018500382 
 1779000    334.64185    444.31905   -498.70135   -498.70267    190.96888    5169.5103      27.0546      59.6399 1.7382616e-05 -0.017925491 5.8792627e-05 -0.019259142 
 1780000    336.17011    446.34602    140.34293    140.33659    149.92749    5151.2051      27.0546      59.6399 -5.1861285e-05   -0.0320569 -0.001493817  0.020046487 
 1781000    343.40433    455.89604    127.34251    127.20848    56.957132      5165.86      27.0546      59.6399 0.00061627896   0.03224221 0.00082352453 0.0091748276 
 1782000    340.07644     451.5341   -197.67467   -197.67764    245.77458    5305.1676      27.0546      59.6399 -0.00018865233 -0.0057573485 -0.00035876726 0.00035635117 
 1783000    340.18963    451.58955    306.52049    306.29815    90.993634    5152.0707      27.0546      59.6399 0.00046554812 -0.019415889 -0.00017045894 -0.030085109 
 1784000     335.5577    445.53184   -19.493684   -19.502466    262.02258    5254.1893      27.0546      59.6399 -0.00051946712  0.073102502 -0.00029222857 0.0010168772 
 1785000    341.34137     453.2121   -73.409034   -73.415504    181.04443    5259.2561      27.0546      59.6399 -0.00025774278 -0.021856078 0.00054758314 -0.0086774195 
 1786000    341.10278    452.89612    18.351578    18.346974    195.54517    5270.2073      27.0546      59.6399 -0.00019954817  0.014117592 0.00025138705 -0.0011171772 
 1787000    338.42413    449.30479   -81.638713   -81.723693    149.51764    5184.3288      27.0546      59.6399 -0.00042627252 0.00025460146 -0.00017743058 -0.0075883177 
 1788000      341.301    453.13438    -71.57536   -71.637624    197.96244    5275.5736      27.0546      59.6399 0.00035257277 -0.011938529 0.00017002625  0.034367937 
 1789000    338.40362    449.31415    133.98591    133.98555    182.20152    5216.7076      27.0546      59.6399 0.00088456451 -0.014510464 0.00024863516  0.018041827 
 1790000    345.13766    458.24385   -58.262262   -58.288961    122.01541    5256.7053      27.0546      59.6399 0.00021850282 -0.021371092 0.00054290457  0.029784894 
 1791000    331.10944    439.40573   -325.91108   -326.42863    261.24742    5187.2364      27.0546      59.6399 -0.00071577023 -4.4321158e-05 -0.0005723658 -0.0049472565 
 1792000    341.37193    453.25351   -299.89017   -299.89471    227.73043    5306.3968      27.0546      59.6399 -0.00039353938 -0.009272368 0.00020126359 -0.00087339131 
 1793000    345.01325    458.06109    432.52354    432.45616    164.12726    5296.9664      27.0546      59.6399 0.00055925112 -0.010118334 -7.9448807e-05 -0.0093596955 
 1794000    335.45501    445.31483   -84.315799   -84.511169    418.91718    5409.5561      27.0546      59.6399 -0.00040740968  0.025608519 -0.00023782651 -0.0079839092 
 1795000    337.22222    447.73279    148.22458    148.19471    180.16701    5197.0971      27.0546      59.6399 0.00012319723  0.008929269 0.00018487304 0.0025638728 
 1796000    341.26051    453.09041   -320.94269   -320.98229    285.07871    5362.0874      27.0546      59.6399 -0.00030703184 -0.011984668 0.00096452449 -0.0054971327 
 1797000    339.20559    450.37907   -71.412479   -71.412585    286.89651    5333.3337      27.0546      59.6399 0.00059393901 -0.030181551 -1.3796039e-05 -0.002383037 
 1798000     353.3428    469.03336   -201.53938   -201.80861    189.04282    5445.8025      27.0546      59.6399 0.00017114573 -0.010705499 0.00017775729  0.019814194 
 1799000    336.98001    447.40458    30.485059    30.439888    188.09693    5201.4236      27.0546      59.6399 0.00037259787 0.0064799498 -4.271917e-05 -0.0069357854 
 1800000    332.33334     441.2545   -67.001451   -67.001495     301.1086    5245.3059      27.0546      59.6399 9.9932524e-05 0.0049399674 -0.00034754931 0.00019687004 
 1801000    341.09808    452.84544     119.4935    119.38613    282.72403    5357.3162      27.0546      59.6399 -0.00048971323 0.0058878317 0.0006111991  0.018759302 
 1802000    340.56256    452.13944   -31.584928    -31.68065    332.96978    5399.5949      27.0546      59.6399 8.8841594e-05  0.019907876 0.00089406091 0.0089538622 
 1803000    337.56418    448.07892    211.86095     211.5815    298.65129    5320.6688      27.0546      59.6399 -0.0011222221 -0.0030990423 -7.937493e-05 -0.021900016 
 1804000    332.39562    441.33303   -98.928338    -98.93798    275.25634      5220.38      27.0546      59.6399 0.00010965128 -0.003692572 0.00061691114  0.025091234 
 1805000    339.77655    451.11154   -206.32183   -206.38122     202.2944     5257.226      27.0546      59.6399 0.00024578955 -0.017352276 0.00027814814 -0.029509871 
 1806000    335.98184     446.0537   -295.53452   -295.63883    345.68695    5344.1637      27.0546      59.6399 -3.3649649e-05  0.026167135 -0.00047852202 0.0083962403 
 1807000    346.93251     460.6263   -77.450795   -77.479049    351.24295    5512.6353      27.0546      59.6399 -0.00069471609 0.0032797399 -0.0003834963 -0.018450515 
 1808000    346.32405    459.79442     103.1799    103.09616    176.32842    5328.6685      27.0546      59.6399 -0.00058883939 -0.007225763 -0.0011230092  0.011009438 
 1809000    330.11242    438.29939    146.27565    146.26108    290.66712    5201.8232      27.0546      59.6399 -6.3394025e-06  0.021945168 0.00051582586  0.025446617 
 1810000    339.29421    450.49468    48.722277      48.7174    239.11108    5286.8668      27.0546      59.6399 0.00023545095 -0.021853059 0.00047809708 -0.017641207 
 1811000    336.29858    446.51227    22.846409    22.830058    262.61032    5265.7992      27.0546      59.6399 0.00084154873 0.0009326922 -7.9857898e-05  0.010436582 
 1812000    340.16956    451.59496   -186.56885   -186.71702    333.97177    5394.7501      27.0546      59.6399 -0.0001179929  0.017449593 -0.00025252319 -0.012781285 
 1813000    334.37918     443.9641    81.847621    81.831989    304.73439     5279.368      27.0546      59.6399 0.00016381039 -0.0077679379 -0.00044261926  0.029688768 
 1814000    344.12585    456.90724   -35.655188   -35.666147    194.87588    5314.5129      27.0546      59.6399 0.00060405553  0.024682866 -0.00049867047 0.00093714991 
 1815000     341.0636    452.79478   -143.48431   -143.60298    357.93715    5432.0164      27.0546      59.6399 -0.0010381267  0.022103585 -0.00052446191 0.0063049348 
 1816000     341.4727    453.36594    109.41102    109.35707    339.62416    5419.7897      27.0546      59.6399 -0.00052041073  0.033916207 -0.0002028628 0.0015758601 
 1817000    329.91769    438.02139   -333.71603   -333.77557    183.58445    5091.8434      27.0546      59.6399 0.00013592845 -0.0083888456 0.0002913061 0.0039342021 
 1818000    338.50696     449.4493    416.71089    416.70577    231.62788    5267.6714      27.0546      59.6399 -0.0013709732 -0.0002759507 -0.00074959531 -0.007223872 
 1819000     333.4741    442.52469    19.854901    19.289448    222.65512    5183.8237      27.0546      59.6399 0.0002254323 0.00055636242 0.00042175297  0.015556975 
 1820000     340.7076    452.04543    312.17391    311.41527    170.78175    5239.5647      27.0546      59.6399 0.00028810567 -0.023293394 0.00049990366 -0.0034450741 
 1821000    335.23522    445.09055    131.48029    131.44115    149.00563    5136.3747      27.0546      59.6399 -9.8507683e-05 -0.013059969 -0.0001116758  0.022149981 
 1822000    339.33842    450.40984    204.01005    203.67318    252.41464    5300.8279      27.0546      59.6399  0.001266051  0.065719623 -0.00037055139  0.001782806 
 1823000    343.73923    456.37783    166.63289    166.58476    73.318328    5187.2035      27.0546      59.6399 7.6167074e-05 -0.001928669 5.7795142e-05  0.033821013 
 1824000    334.51326    444.13672    102.80291    102.77476    148.48368     5125.112      27.0546      59.6399 -0.00046420502 0.0048084316 5.6046987e-05 0.0046956529 
 1825000    336.88748    447.30073    -68.21201   -68.213217    57.828666    5069.7788      27.0546      59.6399 -0.00011244522  0.034206325 -0.00039594325  0.035125351 
 1826000    340.46139    451.97588    104.46867    104.30535    158.37732    5223.4973      27.0546      59.6399  0.000734061 -0.0039533037 -0.00066797264 -0.0018941368 
 1827000    344.11122    456.87649    -206.9523   -206.98945    120.12857    5239.5479      27.0546      59.6399 -9.0046173e-05 0.0059273619 -0.00095520058 -0.020846955 
 1828000    336.33133    446.56109    217.40132    217.39731    198.91798    5202.5941      27.0546      59.6399 0.00025887845 0.0014349386 0.00053306802 -0.012943078 
 1829000    343.00895      455.415   -84.711866   -84.744282    110.24988    5213.2705      27.0546      59.6399 -0.00060167105 -8.5247361e-06 0.00052331993  0.011195604 
 1830000    336.91595     447.3346   -136.29992   -136.31023    144.99714    5157.3709      27.0546      59.6399 -0.00018822542  0.013400315 -0.00044858739 0.0007819421 
 1831000    341.55482    453.49717   -113.36987   -113.37249    76.802154    5158.1894      27.0546      59.6399 -0.0003095247 -0.0050202091 -2.472296e-05 0.0014481289 
 1832000    336.88383     447.2935    205.91009    205.90337    83.867809    5095.7636      27.0546      59.6399 0.00062313289 0.0096663964 -8.7431424e-05 0.0014395618 
 1833000    340.62764     452.2658    61.384407    61.381071    66.686833    5134.2802      27.0546      59.6399 0.00024877176  0.012641575 -0.00047860478 0.0091449712 
 1834000     340.4013    451.95592    473.30007    473.27508    216.68596    5280.9121      27.0546      59.6399 0.00093853753 0.0090455906 -0.00092598966 0.0027385066 
 1835000    328.72908    436.46662   -91.319627   -91.325053    141.59465    5032.1704      27.0546      59.6399 9.7059661e-05 -0.022503704 -0.00062714088 -0.015408027 
 1836000    339.24415    450.27779    27.081465    26.728666    183.04355    5230.0545      27.0546      59.6399 -3.1068363e-05 -0.0014408077 0.00059525334 0.0004475607 
 1837000    341.27723    453.12703   -140.76621   -140.77247    159.41424    5236.6718      27.0546      59.6399 -0.00021257241  0.022271974 -0.00016965207 -0.030356128 
 1838000    343.52533    456.09166   -57.834078   -57.887239     64.09564    5174.7986      27.0546      59.6399 0.00028697523 0.0035338174 -0.00019064907 0.0030974562 
 1839000    340.89886     452.6143    171.82569    171.79551   -13.768786    5057.8595      27.0546      59.6399 0.00011859118 -0.029611529 0.00033889387 -0.0079631175 
 1840000    334.69766    444.26417   -98.956001   -99.255667    100.97402    5080.3457      27.0546      59.6399 4.1385761e-05 -0.021549851 0.00010707508 -0.0078276551 
 1841000     343.2762    455.69463    245.87815    245.67176    182.63419    5289.6308      27.0546      59.6399 -0.00014696324 -0.031265005 -0.00059376768  0.004486587 
 1842000     341.2601    452.92202   -80.747696    -81.17552    141.72016    5218.7227      27.0546      59.6399 -0.00028254251  0.025715194 -0.00062225955 -0.00041674493 
 1843000    335.19809    444.85214    92.084098     91.60756    198.87297    5185.6896      27.0546      59.6399 0.00041702415  0.015327924 0.0010826739 0.0016080041 
 1844000    340.18256    451.54302    40.597502    40.289246    272.17064    5333.1425      27.0546      59.6399 -0.00019175855 -0.009550703 -0.00078677496 -0.010840217 
 1845000    338.40416    449.17264   -221.85004   -222.17936    232.20339    5266.7175      27.0546      59.6399 7.4535403e-06 -0.011238577 0.00090311633 0.0044275354 
 1846000    344.87018    457.89978    61.330829    61.329739    207.29045     5338.001      27.0546      59.6399 4.5951323e-05  0.018796544 0.00012434535  0.035494312 
 1847000    340.20537    451.70478    158.90996    158.90581    159.86211    5221.1733      27.0546      59.6399 0.0014147159  0.025204027 -0.0006113816 0.0035320374 
 1848000    336.76551    447.08719    10.080454    9.9598802    190.28217    5200.4178      27.0546      59.6399 0.00044022243  0.017207329 -9.5396026e-05 0.0033905349 
 1849000    336.33454    446.56352   -224.17331   -224.18155    243.03417    5246.7581      27.0546      59.6399 0.00016334578 0.0080948829 -0.00023543201 -0.017171955 
 1850000     342.4851    454.72849   -183.80077   -183.81229    377.46394    5472.6911      27.0546      59.6399 0.00033229966  0.048499801 -0.00012513227  0.024443656 
 1851000    340.89332     452.5879    162.86097    162.78673    268.70759    5340.2535      27.0546      59.6399 0.00052170923 -0.013429549 -0.0003818861 -0.0020936693 
 1852000    331.77757      440.453    141.52499    141.37791    330.24036    5266.1692      27.0546      59.6399 -0.00056663353  0.015385805 0.00021157168 -0.010176103 
 1853000    342.63336    454.92994    189.11313    189.11225    403.65966    5501.0925      27.0546      59.6399 -0.000178262  0.017929438 -6.6334421e-05 -0.0029991999 
 1854000    339.62809    450.93696    175.08821    175.08097    165.46934    5218.1922      27.0546      59.6399 0.00023039431  0.015145752 0.0001709646 -0.018833766 
 1855000    336.96304    447.36455   -189.16469   -189.25036    286.13205    5299.2064      27.0546      59.6399 -0.001138903  0.064328046 -0.00028886581 -0.016121154 
 1856000    348.96637    463.31566   -143.13832    -143.1922    304.73175    5496.3822      27.0546      59.6399 -0.00047370998  0.020455218 0.00036427719 0.0015062223 
 1857000      342.109    454.22069   -420.56069   -420.59174    321.07387    5410.7058      27.0546      59.6399 -0.00022084435  0.011256679 -0.00022769878 -0.0045370423 
 1858000    342.93915     455.2969   -2.3903418   -2.4815836    192.75154    5294.7338      27.0546      59.6399 -0.00030363296  0.047430842 0.00058869845  0.010205457 
 1859000     343.9518    456.66117   -2.0060455   -2.0516612    272.08347    5389.1311      27.0546      59.6399 0.00074636214  0.019017341 -0.00039765526 -0.010027753 
 1860000    336.71783    446.99658    244.98078    244.79708    282.32753    5291.7537      27.0546      59.6399 2.1983789e-05 -0.0023851595 -8.2772016e-05 -0.0033673995 
 1861000    335.93234    446.01367   -21.957939   -22.002804    188.68631    5186.4266      27.0546      59.6399 0.00052005861 -0.0050009288 0.00048726982 0.00066670607 
 1862000    345.02735    457.90141    133.96701    133.48697    202.78859    5335.8375      27.0546      59.6399 -0.00059378569 -0.021507852 0.00038065634 -0.040327774 
 1863000     342.3354    454.52989    11.560913    11.549773    188.03792    5281.0379      27.0546      59.6399 -0.00057473844 -0.00070448481 0.00083945482 -0.010852361 
 1864000    342.19751    454.35161   0.15950571   0.15945435    147.63646    5238.5852      27.0546      59.6399 -0.00021255455 -0.035653944 0.00039402024 0.0029846763 
 1865000      331.735     440.4387   -104.56361   -104.61303      163.161    5098.4566      27.0546      59.6399 -0.00024792128 0.0091181384 -0.00062487834 0.0036029635 
 1866000    339.78553    451.14438   -357.70505   -357.71604    115.49231    5170.5575      27.0546      59.6399 -0.00022477572   0.01735864 -0.0010116825  0.004422317 
 1867000    342.06603     454.1651   -12.988786   -13.016432    253.77589    5342.7684      27.0546      59.6399 0.00069714734 -0.0053144633 -9.5488386e-05 -0.017578687 
 1868000    341.95779     454.0028    200.17105    200.10041     188.2205    5275.6028      27.0546      59.6399 2.6992658e-06  0.039352714 -0.00020925248  0.014380056 
 1869000    340.93188    452.67112   -3.6426027   -3.6427637    68.047004    5140.1665      27.0546      59.6399 0.00010978431 0.0031342208 -0.00066479692 0.0017759502 
 1870000    343.10001    455.54588     128.9831    128.97375    235.36452    5339.7399      27.0546      59.6399 -5.2150665e-05 -0.00077191183 -0.0005039579 0.0094493745 
 1871000    340.41782    451.97505    89.263855    89.232407    200.22344    5264.6952      27.0546      59.6399 0.00039901086  -0.01731476 0.00015229407 -0.0016607863 
 1872000    325.75422    432.33306   -198.94939   -199.37973    102.02611    4948.3443      27.0546      59.6399 -0.00028138334 0.0069584673 -0.00018036064 0.0020372581 
 1873000    343.67672    456.25503    259.00268    258.86246    82.296691    5195.2519      27.0546      59.6399 -7.7611702e-05 -0.019095819 -0.00066694962  0.000958626 
 1874000    350.51266    465.36708    21.290394    21.232657    157.82577    5372.4807      27.0546      59.6399 0.00018912958 -0.0062382222 0.00017690814  0.016833858 
 1875000    339.54751    450.78726    266.98782    266.88178    54.447174    5105.9712      27.0546      59.6399 -0.0015120164 -0.001166876 -0.00049308072 -0.0087615415 
 1876000    338.70179      449.705    45.785646    45.773616    195.56167    5234.5038      27.0546      59.6399 -4.1819563e-05   0.01725462 -0.00030572338  0.034543508 
 1877000    336.53196    446.76888    87.855139     87.71558    173.10376    5179.7648      27.0546      59.6399 -0.0004591903  0.029994593 5.6704764e-06 -0.017303198 
 1878000    333.42987    442.70996   -100.43444   -100.43553    107.06209    5067.5727      27.0546      59.6399 0.00039431449  0.015618588 -0.00025978738 -0.026533144 
 1879000     333.8413    443.22349     186.1065    186.02968    211.67282    5178.3043      27.0546      59.6399 -0.0014753116  0.033867565 -0.00045598413  0.014504228 
 1880000    339.03144    450.12562   -42.379119   -42.430627    217.22552    5261.0719      27.0546      59.6399 0.00030058286 -0.0046742194 5.9874031e-05  -0.01873781 
 1881000    340.11207    451.58263    123.94875    123.94862    140.64778    5200.5708      27.0546      59.6399 -0.00099291371  0.006211338 0.00063522139  0.013062293 
 1882000    342.87717    455.25223   -14.063596   -14.067777    163.16479    5264.2249      27.0546      59.6399 0.0018327183  0.026942609 0.0008913534 -0.0034876383 
 1883000    332.71876    441.76624   -123.88873   -123.88874    115.64921    5065.5803      27.0546      59.6399 0.00085673407  0.019015314 -0.00014086945 0.0010713753 
 1884000    343.34008    455.74605    441.47322    441.18958     41.64837    5149.5953      27.0546      59.6399 -0.0010365817  0.010320516 0.00030671043  0.013308085 
 1885000    340.18579    451.50356    147.17228    146.76285    126.45912    5187.4789      27.0546      59.6399 0.00035368576 -0.018131894 -0.00024921791 -0.009037627 
 1886000    338.71221    449.53994    313.01522     312.5894    126.09103    5165.1881      27.0546      59.6399 -0.0006146439  0.028625271 0.0001316691 -0.0052143456 
 1887000     335.3468    445.19659    43.590506    43.453951    140.76665    5129.7958      27.0546      59.6399 -0.00038157962 -0.012977511 -0.00091335191   0.01124659 
 1888000    342.71239    455.03407   -145.13074   -145.13349    186.32181    5284.9304      27.0546      59.6399 -0.00011105278 -0.0031425939 -0.00033370322   0.01812299 
 1889000    341.05387     452.8299   -91.752965   -91.760503     255.0136     5328.948      27.0546      59.6399 0.00030471277 -0.005230752 9.5416175e-05 -0.0098365647 
 1890000    333.19839     442.3951   -18.828756   -18.847212     221.9574    5179.0242      27.0546      59.6399 -1.1177386e-05 0.0073955025 0.00043652064 0.0058789427 
 1891000    342.12021    454.23536    -62.66642   -62.697933    201.52049    5291.3191      27.0546      59.6399 -0.00028558082  0.025685546 -0.00029294935  0.015026413 
 1892000    334.22793    443.75421    116.43096    116.39433    287.23261     5259.616      27.0546      59.6399 -0.00045293039  0.010411372 -0.00047371645 0.00022407837 
 1893000    344.98574    457.94442   -81.399254   -81.652001    188.03543    5320.4651      27.0546      59.6399 0.00032992789 0.0080889751 3.4914372e-05 -0.0006876916 
 1894000    340.42844      452.001    20.640275     20.63622    168.08404    5232.7139      27.0546      59.6399 -0.00033558425 -0.021784032 9.9039904e-06  0.031323807 
 1895000    338.41057    449.30498   -124.61848   -124.66138    127.66633    5162.2758      27.0546      59.6399 0.0011272951  0.015122621 9.3433436e-05 -0.026813534 
 1896000    336.47807    446.75614    192.70426    192.70073    164.92305    5170.7823      27.0546      59.6399 0.00079746873 -0.017086971 -0.00054707114 0.0092018498 
 1897000    338.44079    449.33141   -87.410764   -87.485372    262.77307    5297.8322      27.0546      59.6399 0.00051161145  0.019852666 0.0005136224  0.028594382 
 1898000    335.86545    445.92833    213.66749    213.63065    296.44141    5293.1865      27.0546      59.6399 -0.00063631094 -0.025719863 -0.0009623336 -0.011461143 
 1899000    332.23312    441.11487     171.3198    171.30458    242.04405    5184.7503      27.0546      59.6399 -0.00046079387 -0.0073709248 0.00053197393  0.013639877 
 1900000    345.85704    459.15874    204.41616     204.2963    144.74054    5290.1328      27.0546      59.6399 -0.00043336897 0.0051860261 -0.00024604591 -0.0039147313 
 1901000    344.31691    457.11058   -74.823226   -74.950606    215.88079    5338.3602      27.0546      59.6399 -0.00035788253 0.0018309627 -0.00046331991 -0.014992358 
 1902000    347.98145     462.0144   -184.16067   -184.19963    238.63426    5415.6319      27.0546      59.6399 0.0004932418 -0.019246968 0.00063921076 -0.0043218231 
 1903000    346.98119    460.64357    24.358852    24.221051    318.95234    5481.0689      27.0546      59.6399 -3.9051721e-05 0.0060555343 -0.00030762365  0.012456788 
 1904000    337.97665    448.74338   -96.016193   -96.025486    234.55235    5262.7064      27.0546      59.6399 -0.00040988912 0.0025620732 1.7381712e-05 -0.0063104883 
 1905000     339.6768    450.95075   -21.067741   -21.192662    121.30078    5174.7482      27.0546      59.6399 -0.00087764209 -0.0073323836 -0.00054991501 0.0075810834 
 1906000    340.34796    451.87815   -70.515014   -70.556051    128.68227    5192.1148      27.0546      59.6399 0.00038408893 -0.012336875 6.5311465e-05 -0.0015286996 
 1907000    336.03986     446.1723   -3.7357819   -3.7439633    153.77793    5153.1179      27.0546      59.6399 0.00018271132 0.0023980981 -0.00065795472  0.024676119 
 1908000    344.93722    457.84154    425.45328    425.11159    191.98795    5323.6958      27.0546      59.6399 -0.00023990881 -0.034731074 -0.00044131672 -0.013586407 
 1909000    334.31261    443.85437   -204.19446   -204.25946    200.75704    5174.4002      27.0546      59.6399 0.00019599334 -0.0051576603 0.00084628868  0.040037123 
 1910000    333.99637    443.46195   -58.360905   -58.362388     225.5698    5194.5082      27.0546      59.6399 0.00067790417  0.021972935 -9.9397712e-05 0.0065252949 
 1911000    341.65582    453.63118   -132.16238    -132.1652    134.43582    5217.3256      27.0546      59.6399 0.0003151615 -0.012365337 -0.00053203479 -0.0040330973 
 1912000    340.03957    451.48642    77.097995    77.097987    203.12334    5261.9678      27.0546      59.6399 0.00018058368  0.012802621 -0.00029245758 0.0078803353 
 1913000    335.78556    445.83063   -198.85133   -198.86881    163.57281    5159.1295      27.0546      59.6399 0.0010682655  0.014193602 3.0676671e-05 0.0099510251 
 1914000    342.41185    454.63615      44.2766    44.276451    226.98101    5321.1184      27.0546      59.6399 0.00015017224 -0.012690945 0.00024507443  -0.03771997 
 1915000    335.85611    445.77732    127.53242    127.17497    208.03066    5204.6369      27.0546      59.6399 -0.00071292794  0.034276852 0.00041875714  0.014620865 
 1916000    339.58406    450.65019    192.88676    192.35142    165.15753    5217.2253      27.0546      59.6399 0.00036422318  0.037650762 -6.9224918e-05 -0.014415223 
 1917000    342.15168    454.17806   -305.22501   -305.48572    295.76594    5386.0327      27.0546      59.6399 -0.00053627338 -0.015957998 4.7849292e-05  0.028315447 
 1918000    348.62439    462.69923   -178.92716   -179.35662    184.57583    5371.1386      27.0546      59.6399 -8.3468317e-05 0.0078445015 -0.00061597309 0.0059232857 
 1919000    332.06271    440.81907   -242.44551   -242.62155    345.75554    5285.9265      27.0546      59.6399 -3.3191446e-05 0.0094411758 0.00067252977 0.0068900352 
 1920000    345.05868     458.0992   -79.063049   -79.181808    279.94918    5413.4641      27.0546      59.6399 -0.00017184571  0.021516506 0.00016236899 -0.0063901252 
 1921000    338.18545    449.02205   -230.13796   -230.14392    271.78797    5303.0483      27.0546      59.6399 -3.81162e-05 -0.011643549 -0.00035804041 -0.0070647372 
 1922000    332.65597    441.62609    145.65268    145.52132    430.38028    5379.3773      27.0546      59.6399 0.00018369292 0.0089453098 -0.0012096053  0.025306007 
 1923000    344.13383    456.90112    -262.7986    -262.8482    209.39099    5329.1467      27.0546      59.6399 0.00015322238 -0.032533464 -0.00022868044 -0.0093575326 
 1924000    340.25325     451.7682    217.90316    217.89868    227.93727    5289.9607      27.0546      59.6399 -0.00054498409 -0.0053591025 -0.0013483783  0.019627332 
 1925000    344.07268    456.83734   -174.58535   -174.59468     171.1913    5290.0372      27.0546      59.6399 -0.00076339581  0.010142358 -0.00024776372 -0.00063434273 
 1926000    347.38998    461.22925    364.01444    363.97587    252.58458    5420.7828      27.0546      59.6399 0.00056586575 -0.0083250046 3.3092737e-05 -0.024790539 
 1927000    341.88727    453.93952   -233.26905   -233.26949    149.73824    5236.0714      27.0546      59.6399 -0.00054330989 0.0079981181 -0.00043037266 0.0077000601 
 1928000    340.47616    452.06553    94.313417    94.312077     289.5185    5354.8582      27.0546      59.6399 -0.00019774136 -0.0052246876 0.00012358783  -0.02808912 
 1929000    342.29514    454.45867   -92.804877   -92.857109    224.31524    5316.7163      27.0546      59.6399 0.00029444186 -0.0088008053 0.00074790938 0.0081124132 
 1930000    342.88457     455.2347   -135.79474   -135.86219    199.67232    5300.8425      27.0546      59.6399 -0.0002892951 0.0048189805 0.00037245603 0.0069360779 
 1931000    345.33142    458.45232   -201.54681   -201.68638    386.05734    5523.6298      27.0546      59.6399 -0.00096356584  0.039388288 0.00036004538 0.0014931114 
 1932000    340.17888    451.65837   -153.24185   -153.27196    219.49955    5280.4165      27.0546      59.6399 -0.00031150268 0.0067993672 0.00011527579 -0.026459321 
 1933000    345.84092    459.17038    213.22284    213.17941    366.78277    5511.9353      27.0546      59.6399 3.6098666e-05 -0.0088715242 0.00050605528 0.0091901181 
 1934000    348.29725    462.42787    21.798889    21.746473    231.10701    5412.8028      27.0546      59.6399 0.00045527029 0.0041942864 0.00010024006 -0.012750929 
 1935000    340.54705    452.04948   -56.313518   -56.569687    197.86038    5264.2547      27.0546      59.6399 -0.00022991594 -0.017781698 -0.00046100831 -0.00069483176 
 1936000    336.13316     446.2039   -215.23274   -215.45436    212.25885    5212.9869      27.0546      59.6399 0.00024930752 -0.024461838 0.00053045645 -0.010863722 
 1937000    338.74258    449.72875    65.233233    65.150878    185.68702    5225.2359      27.0546      59.6399 0.00029082648 -0.0063665908 0.00048434244 -0.005955891 
 1938000    340.19892    451.69753   -104.58106   -104.58217    305.92674     5367.142      27.0546      59.6399 0.0010408621 0.0052808566 8.0641879e-05 -0.0085111876 
 1939000    334.12519     443.6305   -218.38626    -218.3935    390.31739    5361.1723      27.0546      59.6399 -0.00060249861 -0.027768559 -0.0010327546  0.017106447 
 1940000    346.42798    459.96603   -381.76194   -381.76793    239.64709    5393.5334      27.0546      59.6399 -0.00025608077 -0.017925778 0.0008083018 -0.0021056051 
 1941000    337.11377    447.60149   -240.16818   -240.16869    299.90754    5315.2243      27.0546      59.6399 0.00028988467 -0.016029135 0.00011406908  0.024419651 
 1942000    336.55078    446.85368   -70.268987   -70.270184    199.53326    5206.4742      27.0546      59.6399 1.8784326e-05 -0.012938866 -0.00034372083 -0.0054949209 
 1943000    338.26767     449.1216   -1.4012245   -1.4294231    241.57932    5274.0629      27.0546      59.6399 0.00012486572 0.0038468126 -0.00019843807 -0.014677693 
 1944000     338.9712    450.06599   -241.45653   -241.46096    264.11387     5307.064      27.0546      59.6399 -0.00061512611  0.012779725 -7.6974935e-05  0.015295091 
 1945000      347.033    460.63446    109.52077    109.20278    268.92452    5431.8119      27.0546      59.6399 0.00040238015 0.00088262958 0.00077592566  0.030047346 
 1946000    344.11723    456.89181    101.20434    101.18417    238.24686    5357.7557      27.0546      59.6399 2.0412663e-05 -0.018366441 0.00014651309 -0.0081324687 
 1947000    339.63985    450.92209    303.74663    303.66888    193.00824    5245.9061      27.0546      59.6399 8.295819e-05 -0.018746328 0.00027501585 0.0048422751 
 1948000    338.45637    449.38299    252.48365    252.48053    68.401962    5103.6928      27.0546      59.6399 9.6313777e-05 -0.010885705 0.00044094375 0.0077936311 
 1949000    335.49763    445.44961    250.09013     250.0756    226.06434    5217.3375      27.0546      59.6399 -0.00016986493 0.00082457908 5.4183828e-05  -0.02796946 
 1950000    340.51066    452.08265    282.73133    282.66364    191.56661    5257.4196      27.0546      59.6399 0.00040580294  0.045487973 -0.00045842017  0.012906626 
 1951000    336.05992    446.19475    129.39247    129.37463    285.63618    5285.2745      27.0546      59.6399 0.0001922017 -0.0062964653 0.00093601814   0.05481192 
 1952000     335.8994    445.97724  -0.38840263  -0.41637749    249.03889    5246.2891      27.0546      59.6399 -0.00010057835 -0.022479759 -0.00031784797 -0.00062695092 
 1953000    338.19664     449.0315    199.99797     199.9795    263.83404    5295.2609      27.0546      59.6399 0.00049942795   -0.0230651 0.0010075915 -0.0096210243 
 1954000    345.61826    458.85606    165.36702    165.28036    155.59078    5297.4307      27.0546      59.6399 -0.00036036713 -0.0067250709 -0.00056740967 -0.017330558 
 1955000    341.15812      452.935      97.5261    97.441471    116.58806    5192.0735      27.0546      59.6399 0.00065087376 0.0084167802 0.00026523854 -0.0091835474 
 1956000    339.04833     450.1626    -366.8535   -366.87134    269.47929    5313.5769      27.0546      59.6399 -0.00038919969 -0.006868206 4.7456756e-05 -0.0057104934 
 1957000    342.20963     454.2782   -109.06372   -109.27078    86.141043      5177.27      27.0546      59.6399 -0.00028082391 0.0091111138 9.6600631e-05  0.023902579 
 1958000    333.75749    443.14523   -299.32427    -299.3247    188.77232    5154.1568      27.0546      59.6399 0.00032518254  0.030857776 0.00022165344 -0.010277531 
 1959000    342.62813    454.83502   -77.535643   -77.740028    236.66205    5334.0171      27.0546      59.6399 -0.00046190668 -0.039709424 -0.00032638924 -0.018400767 
 1960000    334.48037    444.10449    222.99557    222.99386     252.7703    5228.9094      27.0546      59.6399 0.00058664698  0.017191132 -0.00062082044  0.017852749 
 1961000    332.40816    441.23694   -125.33945   -125.60986    202.51807    5147.8283      27.0546      59.6399 6.9259179e-05  0.023632862 0.0003016092 0.0064171536 
 1962000    346.81038    460.41141     24.53295    24.382722    73.642685    5233.2181      27.0546      59.6399 -0.0003641631  -0.01218859 0.00011590216  0.016012652 
 1963000    331.68638    440.35241   -82.749693   -82.849395    166.15743    5100.7297      27.0546      59.6399 0.0005570253 -0.029476662 0.00046951955  0.013653174 
 1964000    343.23951    455.73046    415.88522    415.87439    95.944378    5202.3951      27.0546      59.6399 0.00019347756 0.0059734486 0.0011182578 0.0074054701 
 1965000    343.31321    455.83299    97.590813    97.590781    160.82106    5268.3683      27.0546      59.6399 0.00033457032 -0.011759412 0.00051477369 -0.019288471 
 1966000    333.20812    442.32008   -91.589022   -91.810883    85.981822    5043.1934      27.0546      59.6399 0.00033892646 0.0038808336 5.2907766e-05 -0.0085930276 
 1967000    346.07116    459.48684     -126.532   -126.55054    170.62515     5319.203      27.0546      59.6399 -0.0006962781  0.024081635 -0.00039650237 0.0024222143 
 1968000    341.88853     453.9359    215.20898     215.1963    170.87036    5257.2223      27.0546      59.6399 0.00067170837  0.035964808 -0.00023582102 0.0056211301 
 1969000    339.52279    450.79682    375.12266    375.11468    233.80686    5284.9631      27.0546      59.6399 -0.00047863705  0.020468323 -0.00090654643 -0.0060703898 
 1970000    337.18162    447.68271    192.75676    192.73574    180.96275    5197.2889      27.0546      59.6399 6.7499111e-05 -0.016161989 3.1466087e-06 -0.00094035923 
 1971000    341.61545    453.55545   -91.297094   -91.351111    189.10409    5271.3934      27.0546      59.6399 -0.00030836395 0.0084195676 -0.0008741842  -0.01007609 
 1972000     343.8605    456.49234   -18.619388   -18.775109    284.03155    5399.7209      27.0546      59.6399 -0.00044043562 0.0078825091 0.00032777932 -0.0014301712 
 1973000    346.40286    459.93049    191.36036     191.3493    158.34209    5311.8547      27.0546      59.6399 0.0002270619 -0.010166494 -0.00022629679 -0.0048529849 
 1974000     344.1259    456.91204    193.27673    193.27673    121.54362    5241.1813      27.0546      59.6399 -0.00082400611 -0.023456892 -4.8563872e-05 -0.035646848 
 1975000    343.54561    456.11552   -283.68069   -283.74092    186.39612    5297.4007      27.0546      59.6399 0.00027783253 -0.011700823 0.00055826653 -0.014362264 
 1976000    342.71696    454.98845     150.1459     150.0236    255.49568    5354.1723      27.0546      59.6399 4.3762083e-05 -0.015772668 0.00015070181 0.0024672644 
 1977000    342.83284    455.18741   -22.369926   -22.387903    202.62147     5303.022      27.0546      59.6399 1.9902767e-05 -0.0031801769 -0.00015532753 0.00085263456 
 1978000    343.58523    456.19305   -134.61389   -134.61646    177.15051    5288.7445      27.0546      59.6399 -8.7766236e-05 0.0045744068 -0.00043013038 -0.010473157 
 1979000    338.05223    448.78774    79.104237    78.965427    239.03709    5268.3155      27.0546      59.6399 -0.0001591575  0.010853624 -0.00018863647 -0.016474451 
 1980000     339.9613     451.3748    322.60787    322.59005    190.99797     5248.678      27.0546      59.6399 4.1452377e-05 0.00077733166 -0.00068468627  0.030212328 
 1981000    339.31433    450.50783    1.6594318     1.623175    224.44606     5272.501      27.0546      59.6399 -0.00037822916 -8.0261995e-05 0.00062831497 -0.011073093 
 1982000    344.12725    456.91309    178.10914    178.10742    181.78846    5301.4463      27.0546      59.6399 -0.00029001866 -0.018613102 0.00055344513 0.0070697202 
 1983000     343.5769    456.18255    129.01089     129.0096    271.40481    5382.8749      27.0546      59.6399 3.6050459e-05 -0.022668554 0.00047769648  0.031518887 
 1984000    334.65584    444.18863   -4.4304457   -4.7764057    182.67094    5161.4205      27.0546      59.6399 -0.00019542834 -0.0064969742 0.00045393646 0.0046337758 
 1985000    333.13067    442.23983   -252.38243   -252.55205    302.31258    5258.3718      27.0546      59.6399 0.00025769129 -0.032535087 0.00035513228 0.0042297443 
 1986000    340.71713    452.38603    19.460818    19.460761    231.26265    5300.1873      27.0546      59.6399 0.00034242805 -0.004435047 -0.00019155892 0.0033667153 
 1987000    338.57304    449.38265   -19.896327    -20.25857    250.32124    5287.3479      27.0546      59.6399 -7.6149982e-05 -0.026505453 -0.00018682103  -0.01459214 
 1988000    339.93312    451.34217    651.89286    651.88612     96.52849    5153.7892      27.0546      59.6399 0.00046041971 -0.024313458 -0.00022795795 -0.0024348294 
 1989000    331.77964    440.50622   -263.71317   -263.74351    277.75256    5213.7123      27.0546      59.6399 -0.0008059456 -0.015365413 -0.0003521488 -0.0060355147 
 1990000     344.0042    456.74541   -275.19677   -275.20844    258.17012    5375.9972      27.0546      59.6399 0.00017280474 -0.013864685 -0.00025046309 -0.020027053 
 1991000    333.07603     442.1988   -20.443295   -20.540004    215.71785    5170.9642      27.0546      59.6399 4.6358418e-05  0.024868519 -0.0011455556  0.027104053 
 1992000     344.7105    457.67472    112.74782    112.71655    93.703589    5222.0386      27.0546      59.6399 -0.00018729388  0.015899067 0.00077247375  0.002697551 
 1993000    340.87022    452.58495   -56.100895   -56.110996    84.298928    5155.5012      27.0546      59.6399 0.0001810214 -0.0060160272 0.00026725133  0.016301421 
 1994000    341.59994     453.5489    8.1430125    8.1214936    222.65666    5304.7151      27.0546      59.6399 0.00019065616 -0.0098611342 -0.00048312905  0.019829739 
 1995000    341.33136    453.19979   -209.99729    -210.0015    285.09683    5363.1596      27.0546      59.6399 0.0001714019 -0.00049036365 0.00021032678 -0.0064297183 
 1996000    341.91161    453.95873    149.67573    149.64495    81.740588    5168.4359      27.0546      59.6399 -0.00047783396 -1.448705e-05 -0.00018008866 -0.0014996866 
 1997000     339.9853    451.40968    427.88856    427.87771    179.10296      5237.14      27.0546      59.6399 0.00020671386  0.019563077 0.00081419237  0.034213133 
 1998000    337.18271    447.68337    189.77113    189.74827    218.19727    5234.5397      27.0546      59.6399 -0.00025238876 -0.020013018 0.00044487572 0.0054993531 
 1999000    342.04003    454.13815     51.19707    51.186924    45.718135    5134.3239      27.0546      59.6399 -0.0003157813 -0.019799931 -0.00041532074 0.0091386555 
 2000000    336.55806    446.86205    312.69501    312.69083    303.69762    5310.7468      27.0546      59.6399 -0.00043988521  -0.01859152 0.00017395222 0.0081675178 
 2001000    333.65567    442.96258   -71.373653   -71.483862    118.76843    5082.6382      27.0546      59.6399 -0.00042152418  0.032884949 0.00020813377 -0.028636782 
 2002000    341.80651     453.8023   -265.70878   -265.77857    160.18738     5245.319      27.0546      59.6399 -0.00077508708  0.047804846 0.0003878974 -0.00026295991 
 2003000    335.36955    445.20352   -395.22697   -395.41735    145.18111    5134.5486      27.0546      59.6399 -0.00028607182 -0.013362806 0.00010738154 -0.00018809794 
 2004000    336.47934    446.69906    37.922071    37.782619     214.1456    5220.0238      27.0546      59.6399 7.4721075e-05  0.026315107 0.0002028776  0.058573959 
 2005000    337.87363    448.57374     65.86448    65.779204    218.14382    5244.7651      27.0546      59.6399 9.3058403e-05 -0.00064439738 0.00027502051 -0.011724331 
 2006000    341.03558    452.80618    235.84583    235.83957    206.03245    5279.6949      27.0546      59.6399 0.00061527608 0.0027576325 0.00042030346  0.015093215 
 2007000    337.61829    448.16902     527.1493    526.91206    325.45434    5348.2769      27.0546      59.6399 0.00024149202  0.018554861 -0.001019773  0.034265586 
 2008000    334.67425    444.34986   -279.41072   -279.44028    276.61805    5255.6414      27.0546      59.6399 -0.00024780006 -0.0039091435 -0.00070635884 0.0085694585 
 2009000    333.61692    442.88687   -114.45526   -114.62157    329.66861    5292.9618      27.0546      59.6399 0.00027129958 -0.0017753495 0.00013757214 0.00019909651 
 2010000    344.79655    457.79835    241.99375    241.98417    277.26673    5406.8819      27.0546      59.6399 -0.00030648283 -0.0050952253 5.1616046e-06  0.012291296 
 2011000    335.18275    445.03559   -41.296712   -41.301812    272.90474    5259.4932      27.0546      59.6399 0.00010563775 -0.027559048 0.0005692463  0.048361216 
 2012000    340.45759    452.04121    139.92884    139.92826    139.55628    5204.6198      27.0546      59.6399 -0.00039504675  0.014937001 -0.00029713742 -0.0039228383 
 2013000    337.44283    448.03268    248.87354    248.85981    188.74235    5208.9546      27.0546      59.6399 0.00041898935 0.0063873724 -0.00022415546 -0.012832539 
 2014000    346.91357    460.49631    200.35635     200.0856    250.00891    5411.1194      27.0546      59.6399 -0.00012702205 -0.012600116 -9.5282377e-05 -0.00015268723 
 2015000    339.81461    451.16796    -65.91428    -65.96003    276.70306    5332.2008      27.0546      59.6399 0.00051471292 -0.018881437 -0.00064271556 -0.014147879 
 2016000    340.10708     451.5663   -623.36378    -623.3864    366.00555    5425.8545      27.0546      59.6399 0.0012640892 0.00072453281 0.00026795048 -0.030566075 
 2017000    334.56525    444.20977   -479.80481   -479.82364    135.19118     5112.593      27.0546      59.6399 0.0006500374  -0.00560291 -0.00061744017 -0.021493223 
 2018000    343.37704    455.75235   -19.682527   -20.065093    219.77115    5328.2679      27.0546      59.6399 0.0004377349 0.0096235013 -0.00042662007  0.061097658 
 2019000    342.72794    455.04422   -54.146166   -54.173201    182.19628    5281.0363      27.0546      59.6399 0.00038508994 -0.004440088 0.00048441247 -0.0086515478 
 2020000    337.56445    448.19985    56.589119    56.588565    302.66814    5324.6897      27.0546      59.6399 -0.00045720481  0.034200169 -0.0008433747  0.014200936 
 2021000    345.37281    458.46807    -77.50885   -77.739121    189.35881    5327.5471      27.0546      59.6399 0.00035248505 -0.00078224916 -0.0002332098  0.030213154 
 2022000    345.80702    459.11382    24.899615    24.829479    164.16825    5308.8163      27.0546      59.6399 0.00037446276  0.013848056 -0.000588734 0.0017993802 
 2023000    338.31732    449.16243   -365.16529   -365.25154    260.48376    5293.7059      27.0546      59.6399 -0.0011092637  0.035638879 -0.00017916645 -0.021098208 
 2024000    338.59174    449.52443   -164.86613   -164.95784    144.41432    5181.7191      27.0546      59.6399 0.00032793885 -0.024487063 -0.00045677912 -0.016624267 
 2025000    340.88096    452.44294   -28.894433   -29.266018    225.74255    5297.1046      27.0546      59.6399 6.6477996e-05  0.019914367 -0.00035867084 0.0073335401 
 2026000    339.09269    450.12082   -117.66681   -117.91755    360.53038     5405.288      27.0546      59.6399 -0.00044729695  0.015474249 0.00028509984 -0.0075183173 
 2027000    344.41197     457.2722   -354.83319   -354.87871    253.33618    5377.2299      27.0546      59.6399 -0.00033200768 -0.036406086 -0.00077815381 0.0054779645 
 2028000    343.50857    456.07309    78.049615     78.00499    372.26211    5482.7157      27.0546      59.6399 0.00015236283 -0.0085585019 -9.3485267e-05 -0.0015132745 
 2029000    337.67583    448.33508   -236.12459   -236.15445    233.04561    5256.7243      27.0546      59.6399 -4.995654e-05  0.010264103 -0.00056923789 0.0047917853 
 2030000    335.53897    445.50857     266.9654    266.96031    199.91389    5191.8019      27.0546      59.6399 -0.00046272941 -0.025133111 0.00020064518  0.023502103 
 2031000    343.27298    455.68637    294.16854    293.95294    305.28411    5412.2328      27.0546      59.6399 5.5515849e-05 -0.0010089753 0.00057649619 -0.013661246 
 2032000    345.06732    458.16083   -273.44761   -273.45034    260.40073    5394.0442      27.0546      59.6399 -0.00032423358  0.012204512 -0.00075016421  0.020075447 
 2033000     350.5793    465.33933   -115.02401   -115.35061    143.33808    5358.9845      27.0546      59.6399 0.00030880698  0.018931927 0.0012081271 0.0091492401 
 2034000    337.14936    447.64667    85.150155    85.144862    85.810247    5101.6564      27.0546      59.6399 -0.00034852123 -0.0050045138 -0.00085105525  0.016518173 
 2035000    336.75357    446.87388    61.952366    61.375085    259.81152    5269.7694      27.0546      59.6399 -0.00033635366  0.014794532 0.00060566444 -0.012746525 
 2036000    334.42994    444.01958   -120.89621   -120.93941    93.350758    5068.7395      27.0546      59.6399 4.0409391e-05  0.015287488 0.00016978625  0.014735713 
 2037000    340.67182    452.26778    53.589042    53.454611    56.376703    5124.6273      27.0546      59.6399 -0.00066599875  0.010258613 0.00026163415 -0.0012422055 
 2038000    333.67671    443.03406    126.42916    126.41966    230.54481    5194.7277      27.0546      59.6399 -0.00062329151 -0.0092729569 0.00058713914  0.036228517 
 2039000    345.01173    458.08245    143.39461    143.38131    152.25602    5285.0724      27.0546      59.6399 0.00010031463 0.0040013576 -0.0001488948  0.020808054 
 2040000    340.68593    452.32056   -78.321533   -78.377227    102.06066    5170.5213      27.0546      59.6399 -0.00056716147 -0.011816068 -7.3446253e-05 0.0058102733 
 2041000     342.1379    454.25485    87.760445    87.719677    122.02668    5212.0885      27.0546      59.6399 0.00026919887 0.0023699798 8.4398686e-06 0.0043668349 
 2042000    332.25777    441.13837   -153.59841   -153.63496    77.175849    5020.2488      27.0546      59.6399 0.00057335074 -0.016786885 -1.6776378e-05  0.027233174 
 2043000    342.64045    454.84138    474.60055    474.37306    96.399098    5193.9374      27.0546      59.6399 -0.00077696975 0.0098875929 -0.00018943945 -0.0065074087 
 2044000    340.97106    452.72301   -331.75983    -331.7603    123.87837    5196.5809      27.0546      59.6399 0.0013900308 0.0016773879 -0.00047764205 -0.0034802371 
 2045000     344.3048     457.1485   -277.84397   -277.84646     160.2814    5282.5807      27.0546      59.6399 -3.6184896e-05 -0.019898155 0.0002831886 -0.011811215 
 2046000    332.69241    441.71374    141.93888    141.89837    189.42073    5138.9598      27.0546      59.6399 0.00026209755  -0.03156445 0.00062094982 -0.0013943157 
 2047000    339.58989    450.88441   -127.22287   -127.23434    188.68329    5240.8377      27.0546      59.6399 0.00037516256 -0.035213077 -0.0001048666 -0.0063747572 
 2048000    338.90053    449.90693      387.233    387.07768    145.60776    5187.5065      27.0546      59.6399 0.00013938345 0.0048610783 0.00035821981 0.0013455201 
 2049000    334.09787    443.59435    59.560801    59.553851    205.99155      5176.44      27.0546      59.6399 -0.00052544545 -0.018251704 0.00073091034 -0.010119681 
 2050000    345.38551    458.43175   -90.868577   -91.221865    214.04987    5352.4272      27.0546      59.6399 -0.00028890812  0.019414406 0.00024730248  -0.01965232 
 2051000    344.65026    457.37509     312.5487    312.00936    146.17314    5273.6119      27.0546      59.6399 0.00031641856 -0.0015079252 -0.00071237081  0.025031146 
 2052000    338.01103    448.69325   -57.937582   -58.168428    129.39723    5158.0628      27.0546      59.6399 0.00063164739 -0.0073715689 8.182523e-05 0.0031754245 
 2053000    340.61207     451.7995    92.426962    91.392872    160.28836    5227.6501      27.0546      59.6399  0.000288801  0.015807524 0.00013075266   -0.0102554 
 2054000    337.76095    448.35176    91.801384    91.548695    199.17776    5224.1228      27.0546      59.6399 -0.0003773139 -0.008044784 -0.00039345987 -0.010260954 
 2055000    340.28763    451.81027    25.155123    25.142374    295.43498    5357.9699      27.0546      59.6399 -0.00084655728  0.028225591 0.00011850271 0.0020869399 
 2056000    340.04408    451.29866    59.931113    59.482943     343.6235    5402.5351      27.0546      59.6399 -0.00059052151  0.015483878 -0.00093873814 -0.0083771759 
 2057000    334.61722    444.28539    41.206246    41.202705    336.59784    5314.7728      27.0546      59.6399 6.3451055e-05 -0.011560638 0.00021198362 -0.00039574489 
 2058000    338.50219    449.43253    48.654832    48.625573    261.58419    5297.5568      27.0546      59.6399 5.2159846e-05 0.0089701567 0.00090322502 0.0099376163 
 2059000    331.48363    440.09988     375.3005    375.23935    331.52168    5263.0776      27.0546      59.6399 2.5144004e-05 0.0083511921 0.00085677719 -0.017366217 
 2060000    344.46392    457.35497    143.18413    143.17052     316.6391    5441.3057      27.0546      59.6399 -0.00023641348 -0.016001736 0.0005151269 0.0094159216 
 2061000    339.47912     450.7416    57.647785    57.646193    338.33619    5388.8427      27.0546      59.6399 0.00024962504 -0.011770658 -0.0005704891 0.0077221193 
 2062000    334.85906    444.60607    289.83562    289.83108    244.14831    5225.9212      27.0546      59.6399 0.00027958709 0.0071217104 -0.00035240455 -0.0044239379 
 2063000    350.16463    464.92831   -9.3565067   -9.3602912    322.04079     5531.518      27.0546      59.6399 -0.00045716136 -0.029745754 -0.00013887902 -0.0080875421 
 2064000    339.42431    450.62665   -402.02873   -402.12788    305.81313    5355.5042      27.0546      59.6399 -0.00024910795 -0.034989573 0.00071382797  0.037159857 
 2065000    331.01906    439.50928     48.60119    48.600742    301.18353    5225.8279      27.0546      59.6399 0.00061444159 0.0080441784 -0.00059013601  0.043102774 
 2066000    334.41679    443.94709    -5.842533   -6.0130292    312.52647    5287.7196      27.0546      59.6399 0.00061180961 -0.0071090896  0.000278633 -0.015973486 
 2067000    339.60835    450.90029     108.4878    108.45637    320.35948    5372.7886      27.0546      59.6399 -0.00013639856 -0.0098093489 0.00050589432 -0.014199673 
 2068000    341.32402    453.19143    -37.89856   -37.899555    337.41337    5415.3669      27.0546      59.6399 0.0010782533  0.018839044 0.0001994357 -0.004197715 
 2069000    341.55482    453.46217    194.73846     194.6549    239.93493    5321.3222      27.0546      59.6399 -1.1542707e-05 0.0098098369 -0.00025050056 -0.0092909674 
 2070000    343.82014     456.4965   -1.6282289   -1.6503552    379.46127    5494.5501      27.0546      59.6399 0.00053772337  0.010439396 0.00083283557 -0.0058025485 
 2071000    340.07146     451.4745    176.76548    176.63995      422.842    5482.1609      27.0546      59.6399 0.00027319375 -0.020277793 0.00053108724 -0.0062011379 
 2072000    336.08295     445.8725   -104.61516   -105.44911    411.14935    5411.1303      27.0546      59.6399 0.00031699816 -0.0050880264 -0.00028439445 -0.013494737 
 2073000    335.14371    444.92972   -37.385861   -37.515967    327.58697    5313.5947      27.0546      59.6399 0.00039553086  0.010253189 -0.0003362193 -0.0025735303 
 2074000    339.23263    450.26588   -475.85669   -476.20166    277.09456    5323.9341      27.0546      59.6399 -4.021056e-05 -0.032098948 -0.00017184003 0.0020893916 
 2075000    336.51417    446.75496   -192.44325   -192.56035    268.60016    5274.9964      27.0546      59.6399 -6.1155908e-05   0.01077083 -0.00021976141  0.010733718 
 2076000     336.4464    446.67273   -363.13574   -363.23493    297.52456    5302.9127      27.0546      59.6399 0.00074622896  0.012413305 -2.4035349e-05 -0.036009928 
 2077000    340.93122     452.6266   -194.15803   -194.25915    238.12067    5310.2305      27.0546      59.6399 -0.00075064085  0.014079216 0.00037101816 0.0045775789 
 2078000    331.74933    440.39714   -96.690293   -96.879859    110.49606    5046.0048      27.0546      59.6399 -0.00013172371 5.0755141e-05 1.2431609e-05 0.0026546331 
 2079000    341.00037    452.30201    151.49397    150.42969    160.22157    5233.3601      27.0546      59.6399 8.6915047e-05 -0.011424708 -5.6855567e-05  0.018552959 
 2080000    337.70664    448.37661    279.54536    279.51695    261.14234    5285.2794      27.0546      59.6399 -0.00043487022 -0.002758487 7.0100034e-05 0.0078484358 
 2081000    338.92543     449.9928   -77.485106   -77.518247    86.810199    5129.0793      27.0546      59.6399 -2.5273484e-05 -0.045913715 0.00075123227   0.03228468 
 2082000    346.35566    459.86377    22.181726    22.161284    152.31184    5305.1223      27.0546      59.6399 -0.00038291491 -0.028300324 -0.00029134246 -0.017421423 
 2083000    333.94109    443.37175    118.99025    118.94989    154.42836    5122.5444      27.0546      59.6399 0.00052135312 0.0054587361 -0.0006339469 0.0019169495 
 2084000    342.52242    454.76582     285.2983    285.25851    165.61106    5261.3934      27.0546      59.6399 -0.00036908169  -0.02859184 0.00023983179 -0.020964526 
 2085000    339.93585    451.30969   -68.564927   -68.655206    192.13864    5249.4401      27.0546      59.6399 0.00068879958 -0.0060392257 0.00011989773 -0.029698235 
 2086000    343.11355    455.50552   -28.153167   -28.297448    100.95757    5205.5344      27.0546      59.6399 -0.00030186824 -0.021616031 3.3827434e-05  0.014312884 
 2087000    342.57625    454.68963    11.454334    11.072989    86.942267    5183.5255      27.0546      59.6399 -4.4783161e-05 -0.011230177 0.00043430001 -0.013541525 
 2088000    342.64642    454.77938    237.62423    237.23496    36.037944    5133.6652      27.0546      59.6399 -0.00059977635 0.0088743489 -0.0002139448 -0.0083118647 
 2089000    346.13494    459.45485   -68.035042   -68.323451    54.233513    5203.7601      27.0546      59.6399 0.00060419607  0.018748458 -0.00039961178 0.0038834173 
 2090000    341.69579    453.65342    75.671295    75.597177    89.384652    5172.8691      27.0546      59.6399 8.1513357e-05  0.038031041 -0.0004859213  0.013258585 
 2091000    333.81283    443.15716   -172.02343   -172.16624    49.174399    5015.3823      27.0546      59.6399 0.00029570516 -0.021500581 -0.00018919292 -0.030711021 
 2092000    336.56312     446.8261    222.48567    222.38277    224.08376    5231.2083      27.0546      59.6399 -0.00027658716  -0.01178704 0.00044598237  -0.01153502 
 2093000    339.38792    450.51186   -161.54983   -161.80275    149.37894    5198.5287      27.0546      59.6399 -0.00024478399 0.0088540007 -0.00035000637 0.0044126273 
 2094000    340.26854    451.76607    150.81489    150.75851     127.0721     5189.323      27.0546      59.6399 -0.00034169505 0.00056983122 -4.8510581e-05  0.011236539 
 2095000    337.46958    448.06386    387.04048    387.01672    160.43172    5181.0419      27.0546      59.6399 0.0004213931 0.0014023081 -2.8430202e-05 0.0067709571 
 2096000    342.13023    454.23459    204.32477     204.2607    123.51757    5213.4652      27.0546      59.6399 0.0014582508  0.044026602 0.00036596896 -0.013653461 
 2097000    345.02525    458.02623   -247.85004    -248.0349    125.79638    5258.8139      27.0546      59.6399 0.00050880342  0.011523415 -0.00048311121 -0.010348225 
 2098000    340.67029    452.28657    193.79174    193.70545    127.32236    5195.5502      27.0546      59.6399 0.00011030181 -0.013966387 -8.8767538e-05 -0.0032266989 
 2099000     333.4709    442.67832   -369.43893    -369.6392    126.13405     5087.255      27.0546      59.6399 1.0765582e-05  0.037654118 -0.00011793244 -0.020472246 
 2100000    341.87977    453.92874   -9.9500095   -9.9523492    163.07551    5249.2971      27.0546      59.6399 -0.00029094591 -0.00095722746 0.00040248485 -0.0090984199 
 2101000    345.21353    458.33701   -209.24659   -209.29085      182.003    5317.8217      27.0546      59.6399 -0.0013686579  0.043208216 -0.00035935568 -0.011706923 
 2102000    338.10529    448.90751     174.1049    174.08018    125.92064    5155.9885      27.0546      59.6399 0.00060922538  0.018233557 -0.00028024464 0.0047420889 
 2103000    335.87432    445.81772   -2.7358132   -3.0557492    271.27345    5268.1506      27.0546      59.6399 4.2854681e-05  0.017301252 -0.00035817052  0.001843247 
 2104000    338.11946    448.67661    151.83582    151.23351    227.26429    5257.5428      27.0546      59.6399 -2.1263678e-05  0.010747563 0.00046216483 0.0094919444 
 2105000    339.11079    450.24692    146.68886    146.67423    203.55281    5248.5796      27.0546      59.6399 -0.00033136668 0.0073824204 0.00046143219 -0.022801607 
 2106000    341.02057    452.73736    181.57446    181.45514    276.25286    5349.6918      27.0546      59.6399 -0.0010330045  0.033549193 -6.1170918e-05 0.0083419648 
 2107000    332.93171    442.03544    123.05314    123.02178    247.97959    5201.0789      27.0546      59.6399 -0.00064507968 -0.0081676765 0.00022573137 0.0023563522 
 2108000     336.7965    447.01211    106.66043    106.27103    173.53759    5184.1342      27.0546      59.6399 -4.8242033e-05  0.010129331 -7.3629433e-05  0.029680003 
 2109000    339.80553    451.12593    -149.5053   -149.62039    197.38446    5252.7471      27.0546      59.6399 -9.3332853e-05 0.0049043427 -0.00052218049 0.0048090835 
 2110000    334.09102    443.50355    129.51398    129.31803    238.78825    5209.1348      27.0546      59.6399 -0.00033857889  0.045928772 0.00016210148  0.038185917 
 2111000    346.39818    459.85043   -213.59042   -213.77228    274.15048    5427.5934      27.0546      59.6399 -0.00013962828 -0.023864148 0.00064094838  0.005243535 
 2112000     340.0904    451.50652    -191.6983   -191.80793    315.95393    5375.5546      27.0546      59.6399 0.00029499769  0.017334121 -0.00029300305 7.8069155e-05 
 2113000    348.47614    462.67962    204.15291    204.13338    395.36573     5579.723      27.0546      59.6399 0.00037701235 0.0031798582 0.00028418262 -0.0071282021 
 2114000     335.7501    445.77342   -296.45355   -296.49445    331.24663    5326.2758      27.0546      59.6399 5.7962003e-05 -0.0095189296 0.00014820919 -0.025146382 
 2115000    340.91936    452.64847   -16.390955   -16.405053    315.42617    5387.3595      27.0546      59.6399 0.0001347484  0.001051962 -7.0603111e-06 -0.010394181 
 2116000    343.14629    455.59524    11.396124    11.358808    355.91778    5460.9817      27.0546      59.6399 -0.00037549569 -0.028580779 1.1066658e-06 -0.030008987 
 2117000    339.35997    450.52932    182.66357    182.53688    290.00364    5338.7375      27.0546      59.6399 0.00015238375 0.0086629917 0.00025287046 -0.018626336 
 2118000    332.94387    442.05734    31.772724      31.7547    334.86785     5288.148      27.0546      59.6399 0.00011698177  0.025195088 0.0010009812   0.02680336 
 2119000    335.74751    445.76256    64.102105    64.044055    319.96006    5314.9506      27.0546      59.6399 6.6170821e-05 -0.0014798268 -0.00054365405 -0.0018494415 
 2120000    340.24494     451.7349    8.4599419    8.4039166    243.87537    5305.7753      27.0546      59.6399 0.00030824053 -0.002392485  -0.00086705 -0.020867896 
 2121000    341.80978     453.8003    248.69224    248.60776    304.94177    5390.1221      27.0546      59.6399  -0.00027696  0.015646476 -0.00048191551 -0.0040215785 
 2122000    339.88549    451.23824   -170.29259   -170.39347    420.76059    5477.3128      27.0546      59.6399 -0.00057042366 -0.0069837502 -0.00035950677 -0.025280567 
 2123000    331.52106    440.06671    96.706145    96.453326    375.07031     5307.183      27.0546      59.6399 -0.00027833149  0.025312372 9.1141518e-05  -0.01355984 
 2124000     336.5389    446.83056    163.71149    163.69329    277.37396    5284.1382      27.0546      59.6399 0.00013469259 0.00095742092 0.00015644572 0.0030483814 
 2125000    339.52156    450.75992     45.00252     44.91295    360.43601    5411.5739      27.0546      59.6399 0.00052611112  0.010721586 -0.00046348386 0.0028219785 
 2126000    346.50595     460.0515   -375.50423   -375.55199    279.37412    5434.4204      27.0546      59.6399 2.8807363e-05  0.013517275 0.00010399562 0.0050585987 
 2127000    338.56967    449.22626   -198.91298   -199.62661    404.05474    5441.0313      27.0546      59.6399 -0.0010811749 -0.00023251666 0.00033074586 0.0079583078 
 2128000    347.92803    461.86413    -153.2301   -153.45257    248.70452    5424.9075      27.0546      59.6399 -7.4505569e-05  0.034851459 3.0440869e-05 -0.0012203794 
 2129000    343.23755    455.72912    -323.6964   -323.70432    220.67171    5327.0933      27.0546      59.6399 0.00055516196 -0.0036264716 0.00036181017  -0.02811429 
 2130000     335.5303    445.49724    219.22129    219.21661    269.60647    5261.3655      27.0546      59.6399 -0.00022534601 -0.020813217 9.707045e-05 -0.018820253 
 2131000    336.38541    446.63131     172.2415     172.2338    332.92063    5337.4014      27.0546      59.6399 0.00045961543 0.0019774443 -0.00044481038  -0.02887863 
 2132000    337.91031    448.60131    199.39218    199.25804    80.331709    5107.4987      27.0546      59.6399 0.00058475891 0.0035172576 -0.00039998875 -0.017964384 
 2133000      335.436    445.21948   -530.37436   -530.73188    239.00569    5229.3618      27.0546      59.6399 8.4468784e-05  -0.00695333 0.00051322771 0.0089686653 
 2134000    338.88506    449.85105    5.9380309    5.7009739    168.37357    5210.0422      27.0546      59.6399 -0.00041376144 -0.0073153629 -0.00020228878 0.0060507935 
 2135000    333.59926    442.85179    464.45203     464.2588    219.08845     5182.119      27.0546      59.6399 -0.00017132903 0.0095742855 0.00058490096  0.022394256 
 2136000    338.86686    449.92782    19.638463    19.634889    69.809456    5111.2072      27.0546      59.6399 0.00063221813  0.019995492 0.00019688017 -0.028335946 
 2137000    345.56576    458.80451   -259.69087   -259.73551    151.11103    5292.1699      27.0546      59.6399 0.00048120884 -0.0055747274 -8.0594477e-05  0.012473579 
 2138000    341.14026    452.92863    168.03207    167.98759    252.20542    5327.4251      27.0546      59.6399 -0.00057850817 -0.012081321 0.00036263146  0.036370127 
 2139000    341.57542    453.52328   -29.293134   -29.298614    235.03029    5316.7239      27.0546      59.6399 9.580443e-05 -0.026081199 -0.00052058134 -0.0013209555 
 2140000     337.5302     448.1346    23.552472    23.506141    118.83097    5140.3431      27.0546      59.6399 0.00057912176 -0.0044662201 -0.00071537328 -0.0053468357 
 2141000    337.95237    448.71338   -131.00003   -131.00415    258.66406    5286.4568      27.0546      59.6399 -0.00014993677 0.0071697313 9.4606046e-05 -0.0013267466 
 2142000    341.84851    453.87495    106.65807    106.62732    96.038437    5181.7949      27.0546      59.6399 -0.00025761348   0.01979553 0.00026075928 0.0036674249 
 2143000    336.23402    446.42599    209.39167    209.37402    125.75869    5127.9871      27.0546      59.6399 -0.0010279589 0.0054207568 0.00015939518 0.0094000366 
 2144000    344.69831    457.66915   -128.40923   -128.41595    148.04797    5276.2016      27.0546      59.6399 -0.00036033088 0.0060681699 0.00042205365  0.003390589 
 2145000    337.61444    448.26115   0.68174307   0.66943436    131.53091    5154.2962      27.0546      59.6399 0.00048226993  0.028059706 -0.00017361345 -0.0097429146 
 2146000    337.06354    447.49668   -231.83365   -231.92234     194.7855     5209.355      27.0546      59.6399 -0.00051990228  0.014443658 -0.00054876276  0.013925634 
 2147000    339.39162    450.59485   -196.11042   -196.18275    197.73159    5246.9364      27.0546      59.6399 -0.00039695043 0.0082418302 0.00016922643 -0.033106942 
 2148000    339.71046    451.01925    86.625102    86.555248    132.71651    5186.6647      27.0546      59.6399 -0.0012240893 0.0001984157 0.00017147233 0.0045022678 
 2149000    338.66182    449.48592    51.156914    50.760912     68.10445    5106.4518      27.0546      59.6399 0.00053866747  0.013204838 -0.000663414  0.030012108 
 2150000    337.34792    447.80612   -156.07007   -156.31636    210.91722    5229.7174      27.0546      59.6399 -0.00013442546 -0.034285476 1.6793068e-06 -0.0075717253 
 2151000    332.54176    441.52791   -144.23295   -144.24067    71.782974    5019.0809      27.0546      59.6399 -0.00059887899 -0.039475939 0.00021475178 -0.026381833 
 2152000    340.41377    451.94882    105.90521    105.82552    242.74156    5307.1531      27.0546      59.6399 0.00089002412  0.017681864 -0.00031088889 -0.0067103104 
 2153000    346.97707    460.68292   -139.98242   -140.01653    132.34915    5294.4043      27.0546      59.6399 0.00041895164 0.0036256584 -0.00032538181 0.0033029759 
 2154000    331.19348    439.73308    193.99415    193.97567    263.39797    5190.6372      27.0546      59.6399 -0.00010455072  0.018411021 0.00029596693 0.0051605384 
 2155000    340.70388    452.36778    229.03358    229.03201    206.56958    5275.2971      27.0546      59.6399 0.00020395059 0.0016429465 0.00037269399 -0.0084736794 
 2156000    330.73222    439.12483   -94.200092   -94.208863    246.74146    5167.1184      27.0546      59.6399 -0.00047101898  0.031206172 0.0008129327 -0.0088720554 
 2157000    333.81005    443.21321   -158.34513   -158.34976    245.15691    5211.3235      27.0546      59.6399 -0.00024524333 -0.036500296 0.00057839772 -0.00092239782 
 2158000    338.77108    449.78215     322.1547    322.10832    311.21667    5351.1896      27.0546      59.6399 0.00024804168 -7.4481333e-06 -0.00013297742 -0.010789595 
 2159000    342.74546    455.04093   -338.68222   -338.77065    231.95353    5331.0541      27.0546      59.6399 0.00038475741 0.0058588882 1.1585375e-05 -0.0040569074 
 2160000    333.60148    442.91423    42.552901    42.497259    307.98357    5271.0472      27.0546      59.6399 0.0010356013   0.01973725 -6.9449121e-05 0.0035272416 
 2161000    340.37072     451.9261     33.81141    33.811384    300.13601    5363.9071      27.0546      59.6399 8.9638158e-05 0.0011323481 -7.5402757e-05 -0.022793936 
 2162000    345.51127    458.69339    198.29995     198.1656     276.9029    5417.1512      27.0546      59.6399 -1.0367676e-05 0.0050404367 0.00083161227  0.011002095 
 2163000     342.1024    454.21736   -318.69367   -318.71215    364.20493    5453.7387      27.0546      59.6399 -1.7811409e-05  0.024785862 0.00079647882 0.0025689888 
 2164000    346.88113    460.55449    229.71888    229.68233     243.4484    5404.0763      27.0546      59.6399 -0.00029185135 -0.0064503131 -0.00049312185 -0.0096322195 
 2165000    334.17516     443.6839    2.0917723    2.0545621    238.75299    5210.3514      27.0546      59.6399 5.3196396e-05 -0.0091182337 -2.3759271e-05 0.0078660983 
 2166000    341.57202    453.51662    86.590423     86.57997    247.65712    5329.3003      27.0546      59.6399 -6.2452479e-05 0.00029781122  0.000385716 -0.010499599 
 2167000    345.72827    458.95855   -165.11333   -165.30078    248.99916    5392.4758      27.0546      59.6399 -0.00025155845 0.0092702023 -0.0004735828 0.0065801805 
 2168000    342.93482    455.32633    53.481165    53.471324    181.53277    5283.4505      27.0546      59.6399 -0.00054077694  0.018101466 0.0002842824 -0.022889613 
 2169000    339.85207    451.20838    230.12902     230.0617    182.03489    5238.0899      27.0546      59.6399 -0.00028062874 -0.00066461886 -0.00045814344  0.023168956 
 2170000    330.68258    439.06269   -125.44487   -125.44493    454.00364    5373.6421      27.0546      59.6399 -0.00047670677 5.5837473e-05 -0.00029648222 -0.026427009 
 2171000    338.70246     449.7087    154.43373    154.42822    307.89595    5346.8479      27.0546      59.6399 -0.00082816046 -0.030315684 -6.4182657e-06 -0.019661717 
 2172000    336.23937     446.4359    220.36178    220.35059    247.48629    5249.7944      27.0546      59.6399 -0.00015398305  0.017662462 0.00014165942 0.0076009776 
 2173000    337.29219    447.83745   -124.96209   -124.96478    239.39966    5257.3708      27.0546      59.6399 0.00043469711 -0.044382715 0.00044508873 -0.028773938 
 2174000    342.16356     454.2731    48.043537    47.966172    164.12203    5254.5656      27.0546      59.6399 0.00083982089  0.012368857 0.00016806869   0.02359119 
 2175000    334.79432    444.36699    69.665052    69.306343    230.12446    5210.9342      27.0546      59.6399 0.00039795574 0.0086320449 -0.0011451237  0.011389432 
 2176000    347.51747    461.39149   -93.875976   -93.930791    150.02304    5320.1179      27.0546      59.6399 3.5469386e-06 -0.011228572 0.0002027641 0.0097068121 
 2177000    344.07712    456.84304   -69.397457   -69.407238    72.698329    5191.6103      27.0546      59.6399 -0.000335594 -0.0075873099 0.00026409518 -0.011772463 
 2178000    344.74562    457.66507   -204.49366    -204.6551    281.51055     5410.368      27.0546      59.6399 -0.00015579192 -0.013148417 -4.8226365e-05 0.0024163212 
 2179000    337.49402    448.07779     228.8661    228.79947    214.51041    5235.4843      27.0546      59.6399  0.001010208  0.010521573 0.00077249046 -0.022494809 
 2180000    339.22714     450.3902    55.517072     55.47653    241.79378    5288.5516      27.0546      59.6399 -0.00030352403 -0.0043756363 -0.00027354484 -0.0050598815 
 2181000    342.40983    454.54164   -71.214466    -71.42704    149.81659     5243.924      27.0546      59.6399  0.000364334 0.0011796706 0.00015607827  -0.01752338 
 2182000    333.92072    443.35902   -116.35414   -116.36137     202.7262    5170.5392      27.0546      59.6399 0.00060886323 0.0047335529 -6.5412045e-06 -0.015295788 
 2183000     339.8148    451.08093    113.29675    113.04911    97.662328    5153.1628      27.0546      59.6399 -0.00012373872 -0.027807222 0.00016478886 -0.014246581 
 2184000    342.16498    454.25802   -13.925623   -14.042243   -28.185281    5062.2794      27.0546      59.6399 -0.00048911536  -0.00848184 0.00033668082   0.01070216 
 2185000    335.47008      445.414    172.91809    172.90583    192.14358    5183.0067      27.0546      59.6399 -0.00028001146 0.0090001373 0.00087659903  0.030792766 
 2186000      336.565    446.84349    370.23704    370.16858    78.686243    5085.8388      27.0546      59.6399 0.00081882771  0.065243705 0.00034899592 -0.0031782181 
 2187000    336.96495    447.37868   -190.38617   -190.44498     114.2155    5127.3181      27.0546      59.6399 -0.00091784357 -0.007724197 0.00010499264 -0.0038697771 
 2188000    338.71554    449.72479    189.06084    189.05238    167.91498    5207.0615      27.0546      59.6399 -0.00032719851 -0.0032424694 0.00012244511 -0.021473662 
 2189000    344.16161    456.85809   -46.482537   -46.716999    139.72641    5259.8954      27.0546      59.6399 -0.00097823458   0.02724911 -7.0703155e-05   0.01676249 
 2190000    336.67972       447.01   -223.49581   -223.53142    101.48369    5110.3429      27.0546      59.6399 -0.00093442289 -0.0028053761 0.00013606602 -0.008213743 
 2191000    337.83597    448.55629   -194.87725   -194.88722    121.38903      5147.45      27.0546      59.6399 0.00020436265  -0.02549496 0.00043835543  0.048784689 
 2192000    341.63349     453.5633    115.16621    115.07497    53.317974    5135.8755      27.0546      59.6399 -0.00064941679 -0.013930443 -0.00042956417 -0.015389569 
 2193000    339.75127     450.9998   -137.77889   -138.01909    109.87358     5164.429      27.0546      59.6399 5.9530769e-05  -0.02028726 -0.00010441777 -0.011225748 
 2194000    344.48804    457.25357   -190.10143   -190.42364    85.970041    5210.9953      27.0546      59.6399 7.9033553e-05 -0.0005981272 -0.0015665021  0.021847663 
 2195000    339.72645    450.92799    125.63038    125.30033    149.30355    5203.4896      27.0546      59.6399 -0.0014328714  0.014528408 0.00064018624 0.0098314763 
 2196000     344.4095    457.25454   -105.14008   -105.21885    112.81538    5236.6723      27.0546      59.6399 -0.0013088948 -0.0010942784 -0.00053036362 0.0047513601 
 2197000    338.20519    448.92953    432.38968     432.1091    229.31974    5260.8737      27.0546      59.6399 -0.00044782908 -0.015821095 -2.6068566e-05   0.01061666 
 2198000     342.4917    454.63938   -164.25431   -164.49222    147.63016    5242.9555      27.0546      59.6399 -0.00013654936 0.0094723891 0.0001360631  -0.01904611 
 2199000    331.85973     440.6197   -97.679495    -97.69332     392.9792    5330.1304      27.0546      59.6399 -8.6542057e-05   0.01676872 -0.00013388918  0.037525352 
 2200000     343.8874    456.23925    -37.44258     -38.2663    275.06193    5391.1514      27.0546      59.6399 -0.00081536428  0.013175937 0.0014313396  0.027413367 
 2201000    336.44389    446.71177   -299.06999   -299.07117    282.11639    5287.4672      27.0546      59.6399 0.00040016251 -0.0022919828 0.00021274631  0.003886251 
 2202000    330.66599    439.03612   -12.336212   -12.346771    248.77938     5168.171      27.0546      59.6399 0.00024547094 -0.0012102059 -0.00046781078  0.015100791 
 2203000    339.84245    451.13643    99.713007    99.508806    278.31455    5334.2265      27.0546      59.6399 -0.00029663725 0.0024457177 0.00017839826 -0.012210791 
 2204000    333.10799    442.28243   -186.60954   -186.61097    263.14737    5218.8692      27.0546      59.6399 -0.00025369686 0.00061509997 1.5541241e-05  0.058281034 
 2205000     346.8459    460.51567    244.51392    244.49578     171.5485    5331.6523      27.0546      59.6399 -0.00064548959 0.0087543546 -0.00020527433  0.028438955 
 2206000     339.5129    450.72095   -72.743865    -72.89699    225.58445    5276.5936      27.0546      59.6399 0.00022151478  -0.01001065 -5.7241434e-05  -0.01921595 
 2207000    346.31628    459.69748    29.187285    28.903178    344.58322    5496.8077      27.0546      59.6399 5.2835877e-05  0.024377125 -0.00057012755 0.0012663047 
 2208000    340.53272    451.99347   -39.813068   -40.154793    324.09734    5390.2785      27.0546      59.6399 0.00016766024 -0.021199438 0.00016766247 -0.018011428 
 2209000    336.43339     446.5924   -116.20623   -116.45126    301.68211    5306.8767      27.0546      59.6399 -0.00015925179 -0.011262233 -0.0010010541  0.020933641 
 2210000    342.85374    454.96011   -191.62891   -192.23683     252.1759    5352.8874      27.0546      59.6399 0.0011915252  0.022443555 -2.5800787e-05  0.010880641 
 2211000    345.18142    458.22042    119.59694    119.38162    378.38904      5513.73      27.0546      59.6399 0.00015391673 -0.0044209966 -9.36483e-05 -0.0093870752 
 2212000    346.92965    460.63323    -132.0522   -132.05562    411.51908    5572.8688      27.0546      59.6399 -0.00032488479 0.00065393705 0.00031210693 -0.00046307024 
 2213000    335.29146    445.16376     226.5467    226.50418    254.97701    5243.1828      27.0546      59.6399 0.00023756198 -0.0074090316 0.00033142423 -0.018969796 
 2214000    345.25737    458.38716     157.7277    157.66482     384.8133    5521.2841      27.0546      59.6399 -0.00057801883 -0.0069940016 -0.00019988725  0.037098732 
 2215000    337.99606    448.73504   -93.745194   -93.833372    340.87739    5369.3201      27.0546      59.6399 -0.0007759213 0.0058224817 -0.0001704644 -0.0077690731 
 2216000    337.72148    448.40751   -334.03969    -334.0422    225.43973    5249.7975      27.0546      59.6399 -0.00026722617 -0.006910187 9.579205e-05  0.025397637 
 2217000    337.96369    448.64124   -225.66181   -225.86755    279.58873    5307.5499      27.0546      59.6399 0.00015870476 -0.015576303 3.6900667e-05 -0.0042307117 
 2218000    341.54926    453.49091    271.60229    271.60226    277.26236    5358.5669      27.0546      59.6399 0.00026299138 0.0092669394 -0.00016273163 0.00012577934 
 2219000    340.12205    451.59479   -439.45891   -439.46159    314.07259    5374.1442      27.0546      59.6399 -0.00018761438 0.0060937499 -0.00075180728 -0.0058276066 
 2220000    337.93031    448.68257    74.813738    74.806119    392.06245     5419.527      27.0546      59.6399 -0.0003020866 -0.011023263 0.00028862706  0.016409906 
 2221000    345.14468    458.25612    23.696929    23.677054    358.69636    5493.4906      27.0546      59.6399 0.00042041404  0.023202279 0.00028276796 -0.023034969 
 2222000    342.25279    454.41082    203.17938    203.14654    371.17719    5462.9482      27.0546      59.6399 0.00018717029 -0.0049159354 0.00043880701 0.0080563859 
 2223000    340.73826    452.39377   -497.35573   -497.40278    275.72456    5344.9637      27.0546      59.6399 -0.00049461719 0.0020660204 0.00015827916  0.022580442 
 2224000    338.56087     449.5202   -289.01095   -289.01763    439.60121    5476.4468      27.0546      59.6399 -0.00010228202 -0.0019443382 0.0002634675 -0.019065508 
 2225000     338.4742    449.40031   -383.72129   -383.73909    374.06384    5409.6199      27.0546      59.6399 0.00023910621  0.022741822 0.00013120246 -0.012299162 
 2226000    340.77737    452.46595   -92.092325   -92.092545    287.14846    5356.9694      27.0546      59.6399 0.00028990397  0.017079115 -0.00041172825 -0.0033715324 
 2227000    342.81695    455.09248    55.869693    55.680924    427.39559    5527.5598      27.0546      59.6399 -0.00029797511 -0.022623671 -0.00088077576   0.01829918 
 2228000     337.4257    447.97512    27.889375    27.795098    366.37465    5386.3321      27.0546      59.6399 -0.00030652341 0.0031536671 9.2845044e-05 0.0045421866 
 2229000    340.32074    451.69893    185.53791     185.1659    322.83677    5385.8644      27.0546      59.6399 -0.0004981644 0.0065193494 -0.00074623156 -0.012175004 
 2230000    340.36277    451.82671   -229.69602   -229.90153    339.70378    5403.3566      27.0546      59.6399 -8.7692625e-05 0.0046786606 0.00014587749 0.0024357531 
 2231000    338.79235     449.5476   -45.860145   -46.514377    220.29811    5260.5875      27.0546      59.6399 -0.0005814094 -0.0048647074 -0.0001269401 -0.00058613025 
 2232000    344.56037    457.48219    -14.94484   -14.960365    222.24537    5348.3467      27.0546      59.6399 0.00031406341  0.037653023 -0.00035021523 0.0039288307 
 2233000    338.27569    449.13155    12.170197    12.140364    309.06351    5341.6664      27.0546      59.6399 0.00067557455 -0.0071924366 7.3638023e-05 -0.013875367 
 2234000    332.87052    441.96432    226.16024     226.1523    259.37978    5211.5688      27.0546      59.6399 -0.00036816535  0.031410216 -0.00042757608 0.0012990101 
 2235000    341.54035     453.3827    -222.5482   -222.77113     219.9056    5301.0775      27.0546      59.6399 0.00031991721 0.0019385919 0.00016489307 -0.00019317662 
 2236000    336.12345    446.28099    111.44813    111.43466    149.88003    5150.4636      27.0546      59.6399 -0.0005989886 -0.013544237 0.00013135863  0.010850586 
 2237000    334.60793    444.27453   -107.19805   -107.19818    140.40096    5118.4377      27.0546      59.6399 8.2710089e-05 0.0016157089 -0.00027010793 -0.011007133 
 2238000    336.85078    447.24958    38.334994     38.32819    202.70264    5214.1068      27.0546      59.6399 0.00013750769  0.037919056 -0.00052532104 -0.018330484 
 2239000    343.48196     456.0507   -17.860076   -17.874775     166.5517    5276.6094      27.0546      59.6399 0.00081246864 -0.0068706083 -0.00021115351 -0.017711537 
 2240000    345.80866    459.01983   -98.941023   -99.233615    55.608937    5200.2815      27.0546      59.6399 -0.00021144019 -0.0040996342 -0.00052392578 0.0072827402 
 2241000    340.04085    451.45422   -48.572304   -48.650741    32.396607    5091.2601      27.0546      59.6399 -4.858793e-05 -0.020191172 0.0006001721  0.014905959 
 2242000    336.53436    446.82414    337.21945    337.20034    79.934741    5086.6314      27.0546      59.6399 0.00038086294 -0.00022257188 -0.00079784056 0.0022784834 
 2243000    344.83058    457.84142    179.05057    179.03608   -5.6776056    5124.4439      27.0546      59.6399 0.00011655214  0.017628455 -0.00015617026 0.0043531193 
 2244000    338.49468    449.34059    197.58461    197.36576   -2.0188432     5033.842      27.0546      59.6399 0.00031111076  0.014259929 0.00015916676  0.027762526 
 2245000    340.04122    451.48151   -126.32127   -126.33772    154.82423    5213.6932      27.0546      59.6399 -0.00024673039 -0.0020523316 0.0010337735 0.0049960596 
 2246000    335.56534    445.54497    157.59276    157.59088    137.36807    5129.6484      27.0546      59.6399 -0.00020782112 0.0050189169 -0.00015764341  -0.01755651 
 2247000    341.31702     453.1808    120.88138    120.87732    175.10925    5252.9586      27.0546      59.6399 0.00074508686  0.025986767 0.00015581895  0.010348544 
 2248000    338.73364    449.72986    188.86198    188.80964   -75.893054    4963.5228      27.0546      59.6399 0.00032928353 -0.036354044 0.00022091321 0.0013704565 
 2249000     343.9913    456.70843    581.28979    581.23221    44.719013    5162.3543      27.0546      59.6399 -0.00037382597 -0.020381944 -0.00024567752 -0.024453712 
 2250000    332.13693    440.93247      73.6676    73.525919    193.55533    5134.8305      27.0546      59.6399 0.0004015455  0.014463474 -0.00046567698  0.044085238 
 2251000    339.59279     450.7972    44.544939    44.322825    166.48146    5218.6792      27.0546      59.6399 9.7534286e-05  -0.03187278 0.00010056406 0.0094966752 
 2252000    350.35763    465.18354    51.421855     51.41571    82.267771    5294.6163      27.0546      59.6399 -0.00048866375 0.0030838774 0.00024555839 -0.0052892264 
 2253000    348.79659    463.11064    71.589942    71.583249    136.39588    5325.5205      27.0546      59.6399 0.00080252037 0.0054930387 0.00053138577 -0.010576996 
 2254000     346.2791    459.75473    91.169454    91.131946    182.28114    5333.9525      27.0546      59.6399 -0.00014500873 -0.011735766 0.0001793668 -0.0053820213 
 2255000    339.18956    450.30654   0.79246203   0.67382206    129.67927    5175.8779      27.0546      59.6399 0.00037670971 -0.00070617454 0.0005404246 -0.010674401 
 2256000    336.82351    447.20009    47.657084    47.619558    213.11153    5224.1099      27.0546      59.6399 0.00017383521  0.030549582 0.0003607517 -0.023294354 
 2257000    339.02048    450.12247   -295.09772   -295.12284    193.62788    5237.3111      27.0546      59.6399 -0.00047471314 -0.0067252782 -9.1068859e-05 0.00043690054 
 2258000    345.24457    458.37086   -185.88318   -185.94444    259.07693    5395.3573      27.0546      59.6399 -0.00033295217  -0.00214757 -0.00022565857 -0.0086993915 
 2259000    341.96484    453.85112   -62.284181   -62.727326     145.0838     5232.571      27.0546      59.6399 0.00016012353 -0.00030996727 -0.00068665804 -0.006017423 
 2260000    344.34605    457.07462    26.587583    26.287511    274.00701      5396.92      27.0546      59.6399 3.1594538e-05  0.017100685 -0.00055451865 -0.018966912 
 2261000    338.10417    448.82514   -248.25999   -248.47179    278.19878    5308.2499      27.0546      59.6399 0.00097496134 -0.012952772 -7.551038e-06  -0.01081678 
 2262000    334.41607    444.01723   -285.19814    -285.2042    240.43788    5215.6203      27.0546      59.6399 0.00017197253 -0.012585484 -0.00022733464 -0.032660589 
 2263000    340.09113    451.55489    233.46033    233.46033    308.43121    5368.0428      27.0546      59.6399 -0.00039606695 0.0083454081 0.00095600754  0.029849802 
 2264000    338.72985    449.72545    54.274293    54.223416    191.49734    5230.8568      27.0546      59.6399 -0.00032913548  -0.02777141 0.0003314861 -0.0010396479 
 2265000    340.29483    451.80273   -52.183568    -52.23589    232.40758    5295.0496      27.0546      59.6399 0.00015012991 -0.0096604175 0.0011190561 0.0074272742 
 2266000    331.07646    439.58519   -28.472365    -28.47353    255.49182    5180.9902      27.0546      59.6399 -0.00082007308 -0.00020165906 -1.2161436e-05 -0.0052388971 
 2267000    332.61531    441.62855   -460.73765   -460.73843    366.33765    5314.7297      27.0546      59.6399 -0.00076896168 -0.0049221043 -0.00028274923 -0.011602844 
 2268000      342.466    454.62826   -7.3946721   -7.5794071    259.44738    5354.3905      27.0546      59.6399 -0.00010760953 0.0049164992 -0.00026990924  0.014157946 
 2269000    343.47429    456.02091    186.80079    186.74075    202.58908    5312.5326      27.0546      59.6399 0.0002150973 -0.016887608 -0.00047716029 -0.020660897 
 2270000    338.91425    449.93846    116.14854    116.02402    168.92663    5211.0295      27.0546      59.6399 1.1268298e-05 -0.0084075811 0.00056935159 -0.017564266 
 2271000    338.77143    449.77154    42.045454    41.973458     323.6748    5363.6529      27.0546      59.6399 0.0001326561 -0.014375961 0.00014408711 -0.013069016 
 2272000    337.04768     447.5071    159.55935    159.54349    256.78964    5271.1231      27.0546      59.6399 -0.00012941898 -0.011227491 1.650616e-05 -0.0092483503 
 2273000    344.27515    457.10676   -215.48602   -215.49401     347.7864    5469.6446      27.0546      59.6399 -0.00064724543 -0.0015645285 0.0010349894  0.021691422 
 2274000    342.46779    454.70904   -218.15047   -218.15383    240.12037      5335.09      27.0546      59.6399 0.00072588815 -0.007156144 -0.00059369103  0.021797891 
 2275000    339.66987    450.98978   -270.05141   -270.06481     340.9608    5394.3052      27.0546      59.6399 2.3960367e-05 0.0080669189 -0.00026473727 -0.019342363 
 2276000    344.15635    456.89633    97.204236    97.074369    250.60413    5370.6949      27.0546      59.6399 0.0001781908 0.0041857693 0.0002599631 -0.0062429215 
 2277000     346.8138    460.48088    25.476429    25.476391    163.66184    5323.2881      27.0546      59.6399 -2.5995487e-06 -0.0015739741 6.4333886e-05  0.016558801 
 2278000    332.05665    440.88513    34.116887    34.112252    350.82653    5290.9074      27.0546      59.6399 -8.0476336e-05 -0.021036911 -0.00016687343 0.0036864098 
 2279000    345.20277    458.24505   -248.44338   -248.66731    296.13014    5431.7888      27.0546      59.6399 0.00014035525 -0.013444533 0.0002859575 -0.027155884 
 2280000    339.92861    451.32883    406.12785    406.10411    182.30051    5239.4942      27.0546      59.6399 5.1655812e-05 -0.004545718 0.00027154668  0.010961067 
 2281000    342.30562    454.35436    165.05184    164.72615    250.58287    5343.1399      27.0546      59.6399 -0.00038917849 -0.001432047 0.00019874895  0.001103265 
 2282000     346.7091    460.33412   -86.973036   -86.990978    231.73547    5389.8041      27.0546      59.6399 -0.00036993613 -0.012598746 6.2409322e-05 -0.025039655 
 2283000    335.16344    444.98017   -141.43676   -141.51075    180.74275    5167.0439      27.0546      59.6399 9.2650389e-05 -0.0093233253 -0.00091894723  0.019754611 
 2284000    344.82781    457.82861   -71.579454   -71.615058    156.54771    5286.6279      27.0546      59.6399 0.00024826805 -0.012156642 0.00038129589 -0.019379807 
 2285000    341.09403    452.80495    245.84936    245.66078    263.78244    5338.3143      27.0546      59.6399 -0.00032828496 0.0029862652 0.0001428945 -0.0053739736 
 2286000    336.81283    447.09473    12.599225    12.350788    153.38517    5164.2247      27.0546      59.6399 -0.00032131687 -0.0094390079 0.00017621158 -0.030890387 
 2287000    341.59471    453.55106   -13.063947   -13.064438    223.25267    5305.2334      27.0546      59.6399 0.00025384381  0.025463176 -0.00017648916 -0.014138895 
 2288000    342.18951    454.33937    40.971075    40.967308    283.15515    5373.9847      27.0546      59.6399 0.00049359539 -0.020233674 0.00044162647  0.025165372 
 2289000    347.01221     460.7255    30.645064    30.601491    164.20182    5326.7799      27.0546      59.6399 0.00028244197 -0.023907551 7.2566758e-06 0.0059298106 
 2290000    342.17965    454.31506    132.16596    132.13624    160.59155    5251.2745      27.0546      59.6399 0.00014882736  0.005453961 -0.00024606652  0.017803845 
 2291000    341.90462    453.94732   -345.73164   -345.76729    150.40897    5237.0002      27.0546      59.6399 1.2169685e-05  0.010699669 -0.00031172491 -0.0034482331 
 2292000    337.37527    447.93686    197.00624    196.97837    214.11239    5233.3195      27.0546      59.6399 -5.565456e-05 -0.0045249627 -0.00083908398  0.020844422 
 2293000     342.3017     454.4899    46.900727    46.900562    315.81819    5408.3169      27.0546      59.6399 0.00040774122 -0.023072866 -0.00079215964 -0.0005802017 
 2294000    343.50626    456.08549    231.60029    231.59145    199.30998    5309.7292      27.0546      59.6399 0.00080259662 -0.0051716424 -0.00036599079 -0.0092068352 
 2295000    341.49698    453.41767   -134.64925   -134.65812    298.69244    5379.2192      27.0546      59.6399 8.1312569e-05  0.027841043 -0.00027770386 -0.0080469255 
 2296000    338.68045    449.63937   -69.794476   -69.892762    398.91226    5437.5368      27.0546      59.6399 -0.0011259562 -0.0098686958 0.00055052478 0.0082056972 
 2297000    334.23823     443.7611    -47.89473   -47.947033    375.12296    5347.6596      27.0546      59.6399 0.00016720834 -0.012933026 -0.00025274991 -0.0070379509 
 2298000    343.23876    455.72342   -168.27347   -168.29829    287.24379    5393.6833      27.0546      59.6399 -0.00025476789 -0.0098413833 0.00042572507 0.0033027375 
 2299000    341.14554    452.95486    36.605736    36.605712     286.8817    5362.1799      27.0546      59.6399 -0.00037513628 -0.011489053 -7.8533904e-05  0.018155183 
 2300000    336.80041    447.17922   -119.64912     -119.664    216.24491    5226.8997      27.0546      59.6399 -0.0001284749 -0.020196028 0.00042692646 -0.0029753813 
 2301000    337.74587    448.44088    73.220882    73.220648    280.88435     5305.605      27.0546      59.6399 -0.0007820496 -0.015430157 -6.2484306e-05  -0.02157969 
 2302000    345.90454    459.27153    489.96088    489.95602    192.99465    5339.0936      27.0546      59.6399 0.00053644019 -0.0022076054 0.00010862218 -0.012373999 
 2303000    348.13827    462.23329     366.8462    366.83195    264.40408    5443.7348      27.0546      59.6399 2.9756107e-05  0.018155049 0.00093232235 -0.0050392125 
 2304000    336.32404    446.55282    25.973071      25.9723    254.08181    5257.6496      27.0546      59.6399 -0.00084703686 -0.002013295 -0.00069829808  0.019130389 
 2305000    332.51068    441.46872   -79.832983   -79.882142    203.73102    5150.5666      27.0546      59.6399 -7.7399954e-05 -0.0044242504 0.00024462625  0.023022067 
 2306000    333.99624    443.42755   -104.12968   -104.21033    285.83816    5254.7746      27.0546      59.6399 -0.0003249021 0.00042701508 0.0008439787  0.047682075 
 2307000    339.50239    450.76148   -68.472916   -68.500011     336.7568    5387.6096      27.0546      59.6399 -0.00038990632 -0.012855554 0.00058557537  0.012054575 
 2308000    336.53363      446.828    69.377089    69.369162    307.98614    5314.6719      27.0546      59.6399 -4.5334769e-05  0.014270463 0.00052386383 -0.014361728 
 2309000    341.95943    453.92812   -81.246654   -81.495083    236.01029     5323.417      27.0546      59.6399 0.0004224431 -0.018156734 0.00011237457  0.028926167 
 2310000    344.36192    457.16217    64.967314     64.82102    301.93551    5425.0846      27.0546      59.6399 3.2029653e-05  0.012067297 -1.5563357e-05 -0.011745022 
 2311000    337.91719     448.6667     206.8407    206.83665    277.48404    5304.7534      27.0546      59.6399 -0.00015109872   0.02925853 -0.00050632771 -0.0049141903 
 2312000    335.36059    445.26473    112.39239     112.3711    154.46983    5143.7041      27.0546      59.6399 0.00015461096 0.0042448545 3.1063932e-05 -0.0048611587 
 2313000    344.60925    457.53352   -89.378147   -89.425091    171.24086    5298.0695      27.0546      59.6399 -5.8579657e-06   0.02209981 -0.0011147873  0.020417802 
 2314000    343.52257    456.10794   -305.07633   -305.08336    101.16202     5211.824      27.0546      59.6399 -0.00022202105 0.0054065142 -0.00068867793 -0.0057195945 
 2315000    340.24899    451.76447    203.58205    203.58202    319.33804    5381.2981      27.0546      59.6399 -0.00032455717 0.0027289952 -0.00039798942  0.024871407 
 2316000    340.28453    451.69705    236.98405    236.71891    163.18205    5225.6709      27.0546      59.6399 -0.00038318261  0.024412493 -0.00051033914 -0.0052661199 
 2317000    346.55022    460.13087   -188.81135   -188.81147    172.83522    5328.5401      27.0546      59.6399 -0.00018295166 -0.015247614 0.00055438703 -0.023746353 
 2318000    347.04737    460.78933       -68.67   -68.673898    171.89385     5334.995      27.0546      59.6399 0.00014323055 -0.0051292251 -0.00050730041 -0.013724834 
 2319000    333.55279    442.87306    310.79503    310.79373    198.81534    5161.1545      27.0546      59.6399 -2.0039012e-05 -0.00059799792 -0.00057018793 -0.010127836 
 2320000      340.861    452.57442    37.362015    37.355867    155.25276    5226.3178      27.0546      59.6399 -0.00010648432  0.018420723 0.00025225422 0.0073957195 
 2321000    335.28263    445.15179   -321.91768   -321.96077    282.29961     5270.374      27.0546      59.6399 -0.000461908 -0.014203678 -0.0002919669   0.00941586 
 2322000     337.8296    448.40222   -273.30721   -273.65402    181.41095    5207.3772      27.0546      59.6399 -8.4848217e-05 0.0064591951 -0.00033606977 -0.015418825 
 2323000    337.92806    448.67337   -204.41652   -204.43852     267.0418    5294.4729      27.0546      59.6399 -0.00057289616 -0.0051226196 0.00060951217 0.0094631231 
 2324000    335.10289    444.93149    308.02916    308.02851    194.19862    5179.5991      27.0546      59.6399 -9.2794198e-05  0.018795639 -0.00025768836  0.030434163 
 2325000     340.8197    452.51734    247.60047    247.58912     146.8262    5217.2768      27.0546      59.6399 -0.00037214033  0.021753479 0.00014439284 -0.030000875 
 2326000    344.04553    456.80498    23.811444    23.810634    271.11876    5389.5608      27.0546      59.6399 -0.00026460741  0.006161066 -0.00017825602 -0.0085175388 
 2327000    337.71144     448.3765    108.72564    108.68222    93.095576     5117.304      27.0546      59.6399 0.00020194175 -0.0049605519 -0.00010194099 -0.009863284 
 2328000    345.91676    459.28527    144.73774    144.72713    155.12075    5301.4016      27.0546      59.6399 -0.00016015874 -0.0068015637 -0.00016628524 -0.024301839 
 2329000    335.66433    445.67581    63.974485    63.971209    140.44778    5134.2009      27.0546      59.6399 0.00040067651 -0.013041751 0.00042465217 -0.0076413119 
 2330000    340.90387    452.63394    -47.14563   -47.145759    143.70816     5215.411      27.0546      59.6399 0.00046266604 -0.012543454 -0.0010205712    -0.023818 
 2331000    337.47745     448.0388    607.72426    607.61836    169.02452    5189.7518      27.0546      59.6399 0.00033808206 -0.017139236 4.1672654e-05 -0.011852499 
 2332000    328.74995    436.49657    193.29898    193.29873    142.40523    5033.2915      27.0546      59.6399 -0.00032063378 -0.021357434 9.4065294e-05  0.016713293 
 2333000    336.81459    447.20321   -165.75378    -165.7567    181.19365    5192.0594      27.0546      59.6399 -5.7649884e-05  0.022591785 -5.4495736e-05 -0.010701306 
 2334000    345.03472     458.1072    182.27716    182.25051     189.4012    5322.5597      27.0546      59.6399 -0.00030449897 -0.011218803 -0.0001244608  -0.01618913 
 2335000    338.30943    449.18841    75.160236    75.158293    40.305672    5073.4105      27.0546      59.6399 0.00033052056 -0.024927491 0.00032067063 -0.0027675165 
 2336000    343.04656    455.46546   -32.319222   -32.350425    172.98745    5276.5676      27.0546      59.6399 -1.4598177e-05 -0.020302283 -0.00047979013 -0.0066337896 
 2337000    340.66008    452.27565   -22.387422   -22.467613     207.2636    5275.3396      27.0546      59.6399 1.4194459e-05  0.015893219 0.00066118253 -0.00022190956 
 2338000    343.47089    456.04232    169.57044    169.57034    128.32835    5238.2214      27.0546      59.6399 -0.00039512062 -0.031796798 -0.0018014065    0.0270419 
 2339000    345.94909    459.32012    56.763869     56.73459    153.15025     5299.912      27.0546      59.6399 0.00099165525 -0.013248689 0.00055601803  0.022717442 
 2340000    340.05525    451.43506   -338.05838   -338.22535    141.44344    5200.5212      27.0546      59.6399 0.00055675329 0.0035091581 0.00011294155 0.0066053644 
 2341000    345.60038    458.84801    236.86594    236.81559    141.10194    5282.6758      27.0546      59.6399 0.00013765331 -0.0098605183 -0.00017228971 -0.009180615 
 2342000    334.73798    444.42531   -279.18807   -279.23883    224.61277    5204.5843      27.0546      59.6399 0.0011472304  0.032328928 -0.00016124574  0.012885314 
 2343000    342.81982    455.16127    326.62126    326.58281    216.04815     5316.255      27.0546      59.6399 -0.00072701195 0.0013563848 0.00096553242  0.012591045 
 2344000    340.05383    451.40644    109.67175    109.44293    186.30414    5245.3609      27.0546      59.6399 -6.0627745e-05 -0.015531493 -0.00036617196  -0.01550749 
 2345000    342.45906    454.66825    129.93379    129.86289    183.59471    5278.4345      27.0546      59.6399 -0.00032194399 -0.021056964 0.00041127823 0.0030052299 
 2346000    341.08142    452.82396    186.42829    186.32239    141.56353    5215.9079      27.0546      59.6399 -0.00030227796 -0.00017902022 -0.00052681102 -0.018247471 
 2347000    349.22088    463.67076   -8.3916647   -8.4058243    246.00481    5441.4417      27.0546      59.6399 -0.00029723785 -0.039284327 0.00032080966 0.0037810679 
 2348000    332.29951    441.16441   -847.75341   -847.85792    285.30286    5228.9968      27.0546      59.6399 0.0002171968 -0.0032016061 -4.9405488e-06 -0.027827025 
 2349000    339.29722    450.50074     4.183493    4.1834122    270.96378    5318.7641      27.0546      59.6399 -0.00064726994  0.012105302 -5.6866213e-05 0.0067769336 
 2350000    346.15714     459.5533   -512.16225   -512.29112    319.27731    5469.1342      27.0546      59.6399 -0.00036465975 0.0010178193 5.2460885e-05 -0.0074097698 
 2351000    340.91821    452.64859    11.453549    11.443257     277.4679    5349.3841      27.0546      59.6399 -0.0010805262 -0.0035102361 1.2317276e-05 -0.0070719221 
 2352000    336.82846     447.2183   -469.31852   -469.32912    217.99829    5229.0703      27.0546      59.6399 -0.0007408823 -0.0082496812 0.00036882508 0.0081178958 
 2353000    343.20033    455.68309    574.93809    574.93802     308.1554    5414.0232      27.0546      59.6399 0.00035437591  0.018059035 -0.00084868506  0.021542746 
 2354000    345.26137     458.4195    135.08249    135.08212     130.8698    5267.4002      27.0546      59.6399 -0.00014725065  0.012522709 8.052045e-05 -0.012098102 
 2355000    337.98744    448.74787    28.519828      28.4878    196.00765    5224.3221      27.0546      59.6399 -0.00056295839  0.019443136 -0.00024028278  0.021155085 
 2356000    341.42957    453.31034   -22.511038   -22.561122    242.10086    5321.6246      27.0546      59.6399 7.1932091e-05 -0.011913645 -0.00036224671  0.022346877 
 2357000    331.71891    440.43792    67.769465    67.767643    323.85231    5258.9085      27.0546      59.6399 -0.00034137229  0.028898812 0.00019064243  0.023347537 
 2358000     345.5313    458.75618    66.441859    66.391235    167.88353    5308.4298      27.0546      59.6399 -0.00019753355 0.0029617851 0.00058564011  0.017607742 
 2359000    348.88323    463.16551    137.55508    137.40922    200.72023    5391.1338      27.0546      59.6399 -4.1932651e-05  -0.01938702 0.00011286424 0.0044849174 
 2360000    351.09437    466.06106    42.835296    42.596237    172.88968     5396.199      27.0546      59.6399 0.00078166419  0.010034525 -0.00022585402 0.0023779987 
 2361000    335.41459    445.34052    53.738513    53.726697    307.63335    5297.6709      27.0546      59.6399 -0.00014702962 0.0075034248 -0.00046777722 -0.0007626613 
 2362000    348.93261    463.27913   -49.893544   -49.928256    252.41663    5443.5649      27.0546      59.6399 -2.5027685e-05  0.004048183 -0.00077021197  0.014350976 
 2363000    332.81953    441.89987    154.13967    154.13926    287.00653    5238.4369      27.0546      59.6399 -0.00085852811  0.015007224 0.00045278066 0.00067696281 
 2364000    349.32632    463.81441    215.69725    215.69151    226.19637     5423.202      27.0546      59.6399 -8.5465667e-05 -0.0040288509 0.00062353499  0.032611966 
 2365000     341.4295    453.33008   -327.78889   -327.79313    188.32851    5267.8514      27.0546      59.6399 0.00086686136   0.02578545 -0.00038679009 -0.00030515748 
 2366000    342.23481    454.39423   -266.50654   -266.52255    204.40717    5295.9107      27.0546      59.6399 0.0006075305 -0.00026420537 -0.00036720098 0.0026837627 
 2367000    341.32168    453.18867     89.54493    89.544748    141.83065    5219.7494      27.0546      59.6399 6.8811649e-05 -0.014375259 0.00048172103 -0.023224284 
 2368000     337.7388    448.43009    32.802852    32.799381    218.61004    5243.2255      27.0546      59.6399 -0.00010041497 -0.016176096 0.00046217845 -0.028106936 
 2369000    347.92212    461.87209     573.4214    573.23551    328.93329    5505.0482      27.0546      59.6399 -0.00080041066 0.0021247204 -0.00032851762  0.022135945 
 2370000    342.96035    455.31525   -139.00701   -139.12091    214.57253    5316.8701      27.0546      59.6399 0.00054244196 -0.0094335166 -0.00018567696 -0.0081273204 
 2371000    355.25545    471.68557    290.00948    290.00094    166.38901    5451.6035      27.0546      59.6399 0.00030349894 -0.018383288 -1.2441506e-05  0.011550616 
 2372000    339.84669     451.1861    101.04818    100.94588    276.37292    5332.3478      27.0546      59.6399 0.0011613445  0.017784942 -0.00018619222 -0.020097567 
 2373000    342.22142    454.38292   -24.022168   -24.023219    379.49551    5470.7999      27.0546      59.6399 -0.00070560272 0.0038249966 -0.00021617471 -0.030038069 
 2374000    339.49314    450.73252   -166.25078   -166.31644    326.06912    5376.7842      27.0546      59.6399 -0.00049513019 -0.014213323 -0.00098458244  0.034418024 
 2375000    349.95412    464.64565   -145.37588   -145.38697    336.61007    5542.9555      27.0546      59.6399 -6.1685326e-05 0.0035046796 -0.00011433242 -0.012009003 
 2376000    337.88359    448.61315   -248.04146   -248.06617    340.39738    5367.1669      27.0546      59.6399 5.0119242e-05  0.030926849 0.00020702159  0.020771773 
 2377000    346.02226    459.41883   -12.081719     -12.1074    333.02839    5480.8787      27.0546      59.6399 0.00047609097  0.026537554 6.5410834e-05   -0.0238259 
 2378000    341.15652    452.95373   -47.754165    -47.79055    245.91774    5321.3794      27.0546      59.6399 -0.00026934783 0.0062537923 -0.0002281545 -0.0031311831 
 2379000    343.02205    455.42297   -78.120004   -78.174224    287.23671    5390.4523      27.0546      59.6399 0.0007870144 0.0052634309 0.00094918977  0.014806375 
 2380000    349.04429    463.34987   -324.06945   -324.28352    331.94965    5524.7594      27.0546      59.6399 -0.0003163143  -0.02924428 0.00033349975  0.005836243 
 2381000    339.22121    450.30066    118.99169    118.76225    270.77979    5317.4493      27.0546      59.6399 -3.1998037e-06 -0.0035048539 -0.00010812579  0.010831442 
 2382000    337.90229    448.64263   -235.19556    -235.2095    161.61491    5188.6626      27.0546      59.6399 -0.00026489453 -0.012425238 7.9011238e-05 0.0026071435 
 2383000    341.40319    453.14514    68.461857    68.110673    240.55506    5319.6864      27.0546      59.6399 -0.00017547639 0.0052652872 0.00038528273  0.020945093 
 2384000    331.22032    439.61573  -0.25448642  -0.62680521    317.30147      5244.94      27.0546      59.6399 0.00021258602 -0.0041628292 0.00056406452  0.010035279 
 2385000    342.03044    454.11413   -269.66698   -269.70324    141.52479    5229.9879      27.0546      59.6399 -0.0003133256 -0.002794473 -0.00015108685 0.0036137915 
 2386000     334.6728    444.33304   -254.32648   -254.39053    210.09144    5189.0934      27.0546      59.6399 0.0010967638   0.02419461 -0.0011381582  0.010127623 
 2387000    334.80896    444.51725    132.45649    132.40039    199.23823    5180.2658      27.0546      59.6399 -0.00086203882 -0.0053778488 -0.0005794247 -0.023779121 
 2388000    338.25405    449.11508    57.387441    57.385986    349.82381    5382.1047      27.0546      59.6399 0.00013461464 -0.0010575348 0.00073454133 0.0059462657 
 2389000    337.55755    448.19033   -400.15008   -400.15147    165.52672    5187.4456      27.0546      59.6399 0.00028246974 -0.017797624 6.2431546e-05 0.0050303217 
 2390000    337.50463    448.11847   -16.720432   -16.725525    399.85775    5420.9894      27.0546      59.6399 -0.00031988186  0.047289682 0.00049789774 -0.014743613 
 2391000    342.33719    454.51552   -114.15554   -114.20544     286.2411    5379.2679      27.0546      59.6399 -8.6214545e-05  0.014276339 -0.00043029198 -0.020488036 
 2392000    346.76121    460.33251    136.12547    135.94377    14.802825    5173.6467      27.0546      59.6399 0.00059830546 0.0039376197 4.8783056e-05  0.013182911 
 2393000    338.84611     449.9013   -134.86205   -134.86328   -29.540815    5011.5484      27.0546      59.6399 0.00017118386  0.020029781 -5.7590427e-05 -0.0023720107 
 2394000    342.60833    454.89696    191.58592    191.58561    239.99595    5337.0564      27.0546      59.6399 0.00058733963  0.011400812 -2.3358271e-06 0.0055415946 
 2395000    337.10155    447.52946    97.262813    97.133227    132.70977    5147.8447      27.0546      59.6399 0.00036740644 -0.0048996665 0.00034213075 0.0097562615 
 2396000    339.50808    450.77698    11.150545    11.141827    222.51882    5273.4562      27.0546      59.6399 0.00019432096  -0.02074447 -0.001125982  0.015215119 
 2397000    346.00399    459.30732   -351.75384   -351.98133    259.46886    5407.0473      27.0546      59.6399 -0.00032227881   0.00378178 0.00014200377 -0.014837844 
 2398000     342.8163    455.17191     413.2373    413.23425    174.71331    5274.8679      27.0546      59.6399 -0.00044107431  0.013023183 -0.00090501268 0.0086839473 
 2399000    340.21418    451.61718    568.66355    568.42973    137.29449    5198.7367      27.0546      59.6399 -0.0008165707  0.029530275 -0.00045816138 -0.0018737808 
 2400000    344.87389    457.88293   -39.597462   -39.648921    166.35191    5297.1176      27.0546      59.6399 -0.00016864232 0.0035635286 -0.00034167819 -0.003439905 
 2401000    339.83201    451.14903   -201.64578   -201.78878    104.29556    5160.0522      27.0546      59.6399 0.00021651851 -0.020704611 -0.00023796718    0.0203771 
 2402000    346.64174    460.24832   -201.39915   -201.40868     168.9051    5325.9715      27.0546      59.6399 1.0406659e-05 -0.012645183 -2.6577005e-05 -0.0079971588 
 2403000    344.82379    457.78681   -192.85849   -192.97843    226.65827    5356.6786      27.0546      59.6399 -0.00024758358 0.0073536166 -6.964605e-05 -0.036900135 
 2404000    339.50986    450.78172    369.63657    369.63336    240.77857    5291.7424      27.0546      59.6399 -0.00039043913  0.021151747 -2.1187822e-05  0.010957144 
 2405000    337.05704     447.5224     199.0481    199.03889    85.400133    5099.8729      27.0546      59.6399 0.00027219867  0.034020427 -1.1309588e-06 0.0063498411 
 2406000    341.87124    453.91496   -378.11593   -378.12393    219.68351    5305.7781      27.0546      59.6399 0.00030694019 -0.0051131175 0.00078952763 -0.019394362 
 2407000    343.42727    455.98251   -188.25625    -188.2607    271.87037    5381.1144      27.0546      59.6399 -0.0002139044 0.00015087769 -0.00054580545  -0.02148194 
 2408000    337.37686    447.90144    312.08448    311.96977      151.723    5170.9538      27.0546      59.6399 0.00032416893  0.010912239 0.00021463202  0.037651593 
 2409000    339.20165    450.37221    58.919405     58.91555     151.3379    5197.7164      27.0546      59.6399 0.00034555156 0.0042553035 -0.00081268315 0.0025576127 
 2410000    341.62007    453.51878    271.01326    270.86023    284.87442    5367.2324      27.0546      59.6399 0.00030347386 -0.002105495 0.0010332719  0.018674537 
 2411000     344.8756    457.74383    119.07908    118.70062    234.23438    5365.0256      27.0546      59.6399 -0.00031665273  0.023451752 -7.0682162e-06  -0.01911911 
 2412000    333.11763    441.92114   -39.949383   -40.816093    210.44175     5166.307      27.0546      59.6399 0.00024323774 -0.023593698   0.00054412 -0.017493366 
 2413000    341.65779    453.57747    123.73978    123.60669    272.66147    5355.5805      27.0546      59.6399 -0.00032166815  0.030174926 0.00015789563 -0.030537113 
 2414000    336.39158     446.6016    19.886354    19.791012    321.13925    5325.7117      27.0546      59.6399 -0.00031895934  0.012405064 -0.00071257139 -0.036604276 
 2415000    343.27243     455.7739    266.99395    266.98251    228.51638    5335.4568      27.0546      59.6399 -0.00037769752  0.015836873 -0.00071236827  0.035944752 
 2416000    340.64765     452.2357   -189.25918   -189.39358     302.8446    5370.7356      27.0546      59.6399 -0.00014720589  0.008771125 0.00021759147 -0.0006401578 
 2417000    336.71397    447.02659    169.37529    169.27285    408.29311    5417.6619      27.0546      59.6399 -0.00052599503  0.014760912 -0.0004833507  0.029142541 
 2418000    339.22856    450.39798    30.560904     30.53401    260.71604    5307.4949      27.0546      59.6399 0.00079171294  0.015050336 0.0006042813 0.0068309169 
 2419000    342.38052    454.56453   -204.43299   -204.50258    241.42977    5335.1011      27.0546      59.6399 -0.00085210613 0.0050488667 -1.8465051e-05  0.013417852 
 2420000    342.36204    454.56931   -98.419526   -98.421336    268.26036    5361.6568      27.0546      59.6399 2.5193211e-05 -0.034577253 0.00061077561  0.010243137 
 2421000    336.48198    446.74553   -22.536397   -22.576451    200.41189    5206.3293      27.0546      59.6399 0.00087121046  0.010698777 0.00014985552 -0.0056880429 
 2422000    340.41965    451.94996    143.49208    143.39697     314.7749     5379.274      27.0546      59.6399 0.00084922608 -0.0025775305 7.1758957e-05 -0.026081865 
 2423000    343.87466    456.52764    146.26215     146.1446    179.21977    5295.1198      27.0546      59.6399 0.00086361799 -0.0038868713 6.2598626e-06 -0.017914504 
 2424000     346.7825    460.42639    279.98023     279.9503     200.7409    5359.9014      27.0546      59.6399 0.00014765336 0.0075167214 0.00026750422 0.0070735468 
 2425000    340.65852    452.30608    1.9532885     1.948289    293.78807    5361.8409      27.0546      59.6399 -0.00017802738 -0.0062302112 0.00014267926 -0.017619839 
 2426000     339.7472    451.03189    376.33292    376.17948    242.48678    5296.9816      27.0546      59.6399 7.8406188e-05 -0.0026526325 -0.0006939982  0.031611656 
 2427000    340.07009    451.52498    7.8356317    7.8310646    192.31736    5251.6159      27.0546      59.6399 -0.00041826264 0.0052825752 -0.00029847475 -0.019860998 
 2428000    334.54653    444.17886    72.126292    72.093438    175.36703    5152.4903      27.0546      59.6399 -8.0069015e-05 -0.00017757552 -1.8454769e-05 -0.017933545 
 2429000    343.98209     456.7131    282.36405    282.34555    288.85785    5406.3561      27.0546      59.6399 -4.2916241e-05  0.004797109 0.00059558487 -0.024834714 
 2430000    336.74905    447.09172    378.66648    378.60697    310.07375    5319.9644      27.0546      59.6399 -0.00058756889 -0.012459295 -3.9286555e-05  0.034481631 
 2431000    336.39244    446.59556   -182.13375   -182.24572    308.26533    5312.8507      27.0546      59.6399 -5.0591237e-06 -0.0051666906 -0.0001310985 0.0046104825 
 2432000    345.24833    458.39703    208.47439    208.46207     179.2924    5315.6288      27.0546      59.6399 0.0015458199  0.023061021 4.6943062e-05 -0.006350508 
 2433000    336.64632    446.97453   -103.68823   -103.70332    260.26235    5268.6247      27.0546      59.6399 -0.00056812605 -0.0017586988 0.00024709162 -0.028919576 
 2434000    348.03714    462.07409    348.81936    348.74746    137.46721    5315.2933      27.0546      59.6399 -0.00043501728 -0.0022123502 -0.00074089728 0.0076966958 
 2435000    338.57665    449.54374    244.87187    244.87119    204.29277     5241.373      27.0546      59.6399 0.00071165736 -0.0087671043 -0.0008211035 -6.3052436e-05 
 2436000    334.54874    444.19419   -33.540081   -33.544268    238.08644    5215.2427      27.0546      59.6399 0.00034150096 -0.019284128 0.00022052954 0.0056113416 
 2437000    340.22455    451.71911    16.262823    16.232909    221.42213    5283.0187      27.0546      59.6399 0.00078696346  0.009918482 0.00039978127 -0.022478533 
 2438000    340.87896    452.58438   -63.729429   -63.767687    310.85922    5382.1915      27.0546      59.6399 0.0005817858 0.0052851697 -0.0005965348 -0.002337922 
 2439000    342.12978    454.23912   -396.46269   -396.51492    282.43383    5372.3749      27.0546      59.6399 -0.00047130112 -0.00064954457 0.00053625522  0.020134431 
 2440000    336.78568    447.05241   -303.04302   -303.30595     173.2071    5183.6427      27.0546      59.6399 -0.00022317725 -0.0087763763 0.00031740766 -0.0060047907 
 2441000    341.46219    453.36381   -562.87044   -562.89702    201.98153    5281.9906      27.0546      59.6399 0.00061110995  0.030396277 0.00012683599 -0.005999519 
 2442000    346.14714    459.58149    156.18016     156.1472    194.99897    5344.7071      27.0546      59.6399 0.00011873411 0.0043591979 -0.00037345846 -0.0076459522 
 2443000    338.56148    449.42204    304.97889     304.7433    249.79527    5286.6499      27.0546      59.6399 0.00053400382  0.026346814 -2.997419e-05 -0.018444604 
 2444000    341.23483    453.03036    65.710452    65.610815    298.49913    5375.1258      27.0546      59.6399 -0.00043680378 -0.015244579 -5.6971374e-05 0.0073129883 
 2445000    344.06179    456.76287    17.889172    17.741003    291.17677    5409.8608      27.0546      59.6399 -0.00084762882 -0.010379332 -0.00032819875 -0.0083853736 
 2446000    339.05684    449.96095    313.97947    313.46905    313.01843    5357.2427      27.0546      59.6399 0.00089016039 -0.028935984 -3.8066497e-05 -0.0060541848 
 2447000    342.48069    454.72498   -32.183594   -32.189702    386.71153    5481.8731      27.0546      59.6399 -0.0001185218 0.0042919733 -8.5853343e-05 -0.0025147655 
 2448000    346.65995    460.27478    210.41454    210.41029    181.69809    5339.0355      27.0546      59.6399 0.00041356536  0.013897525 -0.00072236875    0.0157025 
 2449000    341.02406    452.79011   -307.12649   -307.13452    199.58122    5273.0722      27.0546      59.6399 0.00010040447  0.014122388 -0.00021659268  0.034571528 
 2450000    346.38437    459.90784    131.91502    131.90835    211.61126    5364.8488      27.0546      59.6399 8.5357744e-05  0.012236317 0.00013042102 -0.0059569462 
 2451000    335.88664    445.96821     113.8771    113.86742    185.83405    5182.8945      27.0546      59.6399 0.00040872196 -0.0022018454 0.00030134629   0.02199841 
 2452000    345.23991    458.36195    201.26135    201.19378    124.73569    5260.9468      27.0546      59.6399 -0.00066745752  0.016144774 -0.00021005653   0.01676953 
 2453000    343.78521    456.44793    358.12416    358.09695    157.98659    5272.5557      27.0546      59.6399 -0.00019380464 -0.005592231 3.6904942e-05   0.03292818 
 2454000    342.94328    455.33442    249.22941    249.21228    279.34307    5381.3867      27.0546      59.6399 8.9555878e-05  0.051197029 -0.00010550717 -0.019412748 
 2455000    340.97668    452.71051    512.00727    511.96063    169.76464    5242.5507      27.0546      59.6399 0.00025535599 -0.023424254 -0.00070131751   0.01797808 
 2456000     339.5921    450.84218   -41.401186   -41.517144     238.9405     5291.128      27.0546      59.6399 0.00010898076 -0.027449833 0.00030215465  0.027462877 
 2457000    342.55385    454.75745    161.32166    161.16598    112.73511    5208.9851      27.0546      59.6399 -0.00034063341 0.0069370415 -0.00028568507 0.0048755049 
 2458000    346.36654    459.84103    44.995903    44.889461    192.56308    5345.5353      27.0546      59.6399 -0.00029992391   0.02025512 0.00015503702 0.0082018509 
 2459000    334.75846    444.46346   -262.44979   -262.47523    120.70661    5100.9829      27.0546      59.6399 -0.00042117383   0.01008818 -6.5038318e-05 -0.005716663 
 2460000    337.38454    447.90473   -247.11109   -247.24177    142.87959    5162.2246      27.0546      59.6399 0.00015587044 0.0042151202 0.0014527984  0.033243353 
 2461000    336.54252    446.83539    72.303632    72.285495    270.11029    5276.9284      27.0546      59.6399 0.00045762059 -0.0051205808 0.00048720482 -0.017639752 
 2462000    340.53443    452.14328   -29.893208   -29.893655    216.76768    5282.9743      27.0546      59.6399 9.3062608e-05 -0.017991533 -0.00039023153 -0.0033484672 
 2463000    339.52462    450.74631    31.578959    31.448514    277.91257    5329.0961      27.0546      59.6399 0.00016376473 -0.011720254 -0.00029937988  -0.01807266 
 2464000    338.28919    449.06884   -194.14547    -194.3618    254.65599    5287.4597      27.0546      59.6399 -0.00017070783  0.015090405 0.00050260174 0.0061130991 
 2465000    343.48144      456.046   -3.3517856   -3.3757577    320.57996      5430.63      27.0546      59.6399 -0.00012842739  0.036254947 0.00061524715  0.058633186 
 2466000    336.57049    446.85277    257.31264    257.24878    254.05833    5261.2926      27.0546      59.6399 -0.00086808018   0.02623254 0.00048270279  0.010376836 
 2467000    334.73643    444.25181    168.22372     167.7764    275.08389    5255.0323      27.0546      59.6399 0.0012514436  0.046265888 0.00034177465 -0.0061738391 
 2468000    341.12264    452.89581     258.7663        258.7    272.29298    5347.2506      27.0546      59.6399 -0.0010394337 0.0030782377 0.00070490618  0.021029119 
 2469000    343.13109    455.55906   -181.35801   -181.43232     204.2249    5309.0626      27.0546      59.6399 -0.00027252629 -0.010590773 -0.00025006356  -0.00457002 
 2470000    344.83526     457.8516    239.08096    239.07566    218.09135    5348.2824      27.0546      59.6399 0.00012225239 -0.013595025 -0.0005203845  0.015888908 
 2471000    334.17353    443.64549    137.59737    137.47635    275.33876    5246.9128      27.0546      59.6399 -0.00036151912 -0.016989205 0.00060055416 -0.009023393 
 2472000    343.07705    455.51927    98.264579    98.264208    225.92429     5329.958      27.0546      59.6399 -0.00060536767 -0.0057261476 0.00038637164  0.016078013 
 2473000    333.80196    443.20317    184.05849     184.0555    406.36572    5372.4119      27.0546      59.6399 0.00023780084 0.0066300325 0.00033432194 -0.0078072009 
 2474000    341.47989    453.39774    518.81241    518.80994     275.8406     5356.113      27.0546      59.6399 -0.00059347772 -0.0023488226 -0.00086805395  0.019381707 
 2475000    343.20247    455.68596   -195.61611   -195.61612    398.52095    5504.4206      27.0546      59.6399 0.00039529992 -0.0099796939 0.00036341832 0.0035139321 
 2476000     338.8367    449.82956    128.89564     128.7574    332.65117    5373.6003      27.0546      59.6399 -0.00086687236 -0.0012216238 -0.00061748526 -0.030571995 
 2477000    341.52882    453.33323    301.23309    300.93115    406.95762     5487.958      27.0546      59.6399 0.00043925195 -0.0014840719 3.5458599e-05  -0.02740914 
 2478000    346.52606    460.08638    44.804617     44.77577    310.61072    5465.9562      27.0546      59.6399 -9.5596839e-07  0.010825454 7.3719234e-05   0.02399325 
 2479000    343.52944    456.11668    16.352653    16.344755     325.6283    5436.3924      27.0546      59.6399 -9.6151175e-05 -0.025589435 -9.8997735e-05 0.0084143663 
 2480000    337.39466     447.7784    119.21688    118.76293    352.74297    5372.2385      27.0546      59.6399 0.00035407233 -0.013758026  0.000292958 -0.019161369 
 2481000    339.09643    450.12852   -15.662191   -15.906604    271.69127    5316.5045      27.0546      59.6399 0.00033708762  0.011189753 0.00089834882 0.00045859616 
 2482000    344.42745    457.31183   -71.223869   -71.225249    308.28784    5432.4118      27.0546      59.6399 -0.00042282068 -0.0033289482 -0.00050298655   0.01409429 
 2483000    339.00856    450.10724   -67.738827   -67.762599    283.82013    5327.3261      27.0546      59.6399 -0.00022970782 -0.0032680572 5.7222023e-05 -0.0073786193 
 2484000    338.72445    449.73891    -41.18633   -41.189507    290.47607    5329.7552      27.0546      59.6399 -0.00062136276  0.010322522 0.00029889274 0.0058537003 
 2485000    344.85567    457.88078    112.35305    112.35255    336.59041    5467.0851      27.0546      59.6399 0.00019507581  0.012494713 0.00017793316 -0.010640298 
 2486000    350.32029    465.08334   -100.64714   -100.77038     281.8111    5493.6041      27.0546      59.6399  0.000285492  0.013047072 -0.00032522365 -0.0042990448 
 2487000    342.69754    455.01103    32.429155    32.418721    325.11657    5423.5042      27.0546      59.6399 -0.00059573306 0.00082686958 0.00030813183 -0.0066280725 
 2488000    332.83234    441.70638   -285.27453   -285.76184    316.17616    5267.7972      27.0546      59.6399 0.00041715879 -0.0034230783 0.00032538523  0.019460031 
 2489000    337.56868     448.1565   -110.60827   -110.72211     334.0011    5356.0857      27.0546      59.6399 8.0813231e-06  0.004535607 0.0010445149  0.019096444 
 2490000    333.58702    442.91414   -204.14511   -204.15654    136.91571    5099.7642      27.0546      59.6399 0.00067239519 0.0022795225 0.00026250596  0.026791354 
 2491000    342.16402    454.30609   -136.67007   -136.67252    277.06014    5367.5105      27.0546      59.6399 0.00041274651 -0.0063414588 -0.00027562393 -0.0037139464 
 2492000    341.14013    452.93627    139.80935    139.78291     325.8453    5401.0631      27.0546      59.6399 0.0004530331 0.0059949867 -0.00011780188  0.021780762 
 2493000    341.86596       453.91   -65.725113   -65.728388    161.21935    5247.2355      27.0546      59.6399 3.0489972e-05   0.02169152 4.5901843e-05 -0.0014667417 
 2494000    339.67722     450.9343   -43.445514   -43.609807    122.09166    5175.5455      27.0546      59.6399 0.00017281374 -0.015870346 -2.4206279e-05 -0.013742672 
 2495000    337.50897    448.10076    30.118206    30.058829     271.2136    5292.4098      27.0546      59.6399 -0.00054577613  0.042641765 0.00074645254 0.0015115769 
 2496000    342.73008    454.79313   -243.55685   -244.17122    236.45571    5335.3275      27.0546      59.6399 0.00020329667  0.012811147 0.00090803277 0.0037970098 
 2497000    343.20476    455.68871    69.021353    69.020683    220.69911    5326.6328      27.0546      59.6399 -0.00046551621 -0.018375077 -0.00057737974  0.019780489 
 2498000    346.92049    460.55839   -215.28283   -215.43121    187.69993    5348.9133      27.0546      59.6399 7.4218403e-05 0.0082837249 0.00010898398  0.016018156 
 2499000    339.38198    450.44266    356.44024    356.04552    208.68518    5257.7465      27.0546      59.6399 0.0003074459 -0.0036993547 -0.00065700244 -0.0053174157 
 2500000    339.04585    450.12789   -81.809547   -81.900057    100.09469    5144.1553      27.0546      59.6399 -0.00025180736 -0.0057198043 0.00040771314 -0.019514905 
 2501000    345.28527     458.3952    215.91638    215.78641    139.15506     5276.041      27.0546      59.6399 -0.00069537182 -0.0094228826 -7.9224246e-05  0.021673407 
 2502000    340.02671    451.39061    -114.1251   -114.30726    216.26273     5274.916      27.0546      59.6399 -5.8564064e-05  0.013746567 0.0011043283  0.024465597 
 2503000    337.25628    447.79051   -133.73802   -133.73901    254.44346    5271.8804      27.0546      59.6399 0.00012119495 -0.00040567249 4.7024717e-05 -0.030463409 
 2504000    340.33301    451.78032   -23.934571    -24.15599     122.2464    5185.4565      27.0546      59.6399 -0.00058821868 -0.0071793113 -0.00048345777  0.014325504 
 2505000    337.88042    448.61725    465.80247      465.797    186.47522    5213.1975      27.0546      59.6399 0.0002919736 -0.0032243517 -0.00031430876 -0.0022669689 
 2506000    334.18822    443.71402      93.2356    93.227974     157.5411    5129.3337      27.0546      59.6399 -9.3906352e-06 -0.035357969 0.00019269893  0.012402301 
 2507000    340.28925    451.77556   -97.950011   -98.048039    222.34179    5284.9009      27.0546      59.6399 -0.00023045872 0.0010553737 0.00091391734 -0.0097357181 
 2508000    344.29151    457.09292    473.48474    473.39452    148.83136    5270.9329      27.0546      59.6399 -0.00044366412  0.019029082 -0.00048875913 -0.0039704453 
 2509000    341.40422    453.19665   -55.313869   -55.549082     229.0656    5308.2123      27.0546      59.6399 4.6418983e-05 -0.022719943 0.00032977177 -0.040631252 
 2510000    339.34301    450.49678    312.15463    312.00475      103.456    5151.9376      27.0546      59.6399 -0.00074732806 0.00012185888 3.0632027e-05  0.018947946 
 2511000    334.99433    444.53704   -242.51122   -243.09084    16.952506    5000.7378      27.0546      59.6399 -0.00032498864 -0.0016424103 0.00014331998 -0.0078016343 
 2512000     336.9589    447.39568    16.372448    16.371509     58.50533    5071.5181      27.0546      59.6399 0.00014990269  0.030853216 -0.00073583204 -0.0014168087 
 2513000    338.03631    448.64152   -183.87304   -184.30114    72.933219    5101.9748      27.0546      59.6399 -0.00062430222   0.01529592 0.00062873377  0.023499269 
 2514000    336.41532    446.67294    25.692081    25.688846   -5.5716853     4999.354      27.0546      59.6399 -0.00041090699 -0.021492105 -0.00063224041  0.013782493 
 2515000    341.61655    453.55738     363.7877    363.73476    8.7524271    5091.0581      27.0546      59.6399 -5.8191616e-05 0.0011105074 -0.00069737824  0.023830554 
 2516000    333.11262    442.28778    212.89646    212.89318    131.02085    5086.8116      27.0546      59.6399 -9.1494185e-05 -0.040481946 0.00053952851 -0.005288921 
 2517000    334.23079    443.77052   -259.82271    -259.8304    -10.53958    4961.8864      27.0546      59.6399 0.00027532077 0.0026663705 -4.8761111e-05  0.015479386 
 2518000    337.36144    447.75502    169.63116    169.22516   -25.054294     4993.947      27.0546      59.6399 -0.00035145038 -0.003401474 -0.00080230332 -0.0014515663 
 2519000    338.42179    449.12468    127.96983    127.47542    88.979194    5123.7556      27.0546      59.6399 -0.00050707977  0.012503785 0.00032384541 -0.015272357 
 2520000    343.20958    455.47086   -248.87599   -249.39538    7.2495195     5113.255      27.0546      59.6399 0.00016217304  0.005545091 -0.0014226878  0.044198548 
 2521000    329.92332     437.9301   -278.93769   -279.22571    127.70838    5036.0512      27.0546      59.6399 0.00030722272 -0.026133872 5.387993e-06  0.014853175 
 2522000    343.16998    455.57508   -249.11325   -249.26995    102.22827    5207.6446      27.0546      59.6399 0.00068417953 0.0041290837 -0.00039965408 0.0078807423 
 2523000    333.58859     442.9114   -404.27082   -404.29341    157.27617     5120.148      27.0546      59.6399 -0.00017661427  0.013433458 3.4397421e-05 -0.022526598 
 2524000    334.24714    443.74962    48.792746    48.686486      127.274    5099.9433      27.0546      59.6399 -0.00017316894  0.031007546 -0.00023761313 -0.018028942 
 2525000    349.76368    464.23541    161.65061     161.2755    104.42037    5307.9326      27.0546      59.6399 -0.00036033523 -0.014959019 0.00012507982 0.0036296412 
 2526000    340.80307    452.49697   -311.80843   -311.81584    302.67458    5372.8779      27.0546      59.6399 -3.3392726e-05 -0.0069514015 -7.3465122e-05 -0.0070547311 
 2527000    339.38082    450.48266   -358.63821   -358.93688    245.23974    5294.2839      27.0546      59.6399 0.00027933017 0.0056984235 0.00032737786   0.00321875 
 2528000     339.6506    450.89966   -164.47972   -164.64235    197.76603    5250.8237      27.0546      59.6399 -0.00044112906 -0.027071952 0.00037181168 -0.0064200806 
 2529000    337.71884    448.32997    158.95704    158.78329    254.39768    5278.7162      27.0546      59.6399 7.9948773e-05 -0.011485248 0.00079287173 0.0081284167 
 2530000    332.68297    441.54058    104.01618     103.6041    180.30132       5129.7      27.0546      59.6399 -0.00065637932 -0.0085232822 8.5515251e-05 -0.0039951405 
 2531000    334.79891    444.51151   -149.92735   -149.96587    379.22051    5360.0986      27.0546      59.6399 0.00046969743 -0.0010103714 0.00014858877 -0.014220952 
 2532000    337.58254    448.20196    112.51168    112.46045    255.31158    5277.6022      27.0546      59.6399 0.0010488067 0.0066739199 -0.00026311885 -0.0086120864 
 2533000    340.44249    451.93698    55.076644     54.88135    244.09705    5308.9359      27.0546      59.6399 0.0010868889  0.036082558 4.4204287e-05  0.013366149 
 2534000    338.77087    449.70981    130.55795    130.34489    210.27236    5250.2421      27.0546      59.6399 -0.00039774297 0.0058618045 2.4873281e-05 -0.019704566 
 2535000    338.39658    449.25707   -192.07185   -192.18264    315.26826    5349.6697      27.0546      59.6399 0.00028261791  0.011050363 -6.304691e-05  0.030528666 
 2536000    334.11921    443.50291   -158.96053   -159.24451    281.49446    5252.2604      27.0546      59.6399 0.00056466074 -0.012542951 -0.00025626889  0.017284312 
 2537000    336.77877    447.15068   -121.57034   -121.58474    403.79391    5414.1267      27.0546      59.6399 -0.00024437904  0.010887155 -0.00033044355  0.016887902 
 2538000    338.33271    449.19355   -243.50903   -243.57057    434.33758    5467.7887      27.0546      59.6399 -0.00036936619  0.041204005  3.11924e-05 -0.019863284 
 2539000    333.42604    442.69157    178.57059    178.53874     459.6302    5420.0838      27.0546      59.6399 0.00045902581 -0.025878135 0.00037662882  0.032226788 
 2540000    335.14512    444.98404     219.4978    219.48902    531.36014    5517.3887      27.0546      59.6399 0.00050511489  0.010683282 -0.00056381371 -0.017707824 
 2541000    337.38931    447.96335   -237.88624   -237.89596    364.81565    5384.2316      27.0546      59.6399 -0.00027672936 -0.022054956 0.00019893681 -0.010820865 
 2542000    339.16195    450.29923   -42.402293   -42.453051    379.33275    5425.1207      27.0546      59.6399 0.00085299057 0.0065891812 -0.00097778795  0.042474558 
 2543000    338.31588    448.92625   -41.531939   -42.160065    438.02546    5471.2263      27.0546      59.6399 -0.00012530935 -0.0062819295 0.00014868597 -0.0050593714 
 2544000    342.27265    454.25545   -179.66836   -180.12158    316.66654     5408.733      27.0546      59.6399 -0.00027097581 -0.011716761 -0.00011816603  0.012110517 
 2545000    337.76363    448.29154   -48.781289    -49.18148    333.76232    5358.7471      27.0546      59.6399 -5.5662469e-05 -0.0066037878 -0.00052765734 -0.0068385304 
 2546000    343.19471    455.52146   -1.8810632   -2.2377207    405.03009    5510.8143      27.0546      59.6399 4.0628754e-05 -0.038102755 -0.00038267757 0.0026041904 
 2547000    340.73279    452.21466   -35.406059    -35.85063    366.55033    5435.7081      27.0546      59.6399 0.00023787202 -0.017347925 0.00031879687 0.0049226071 
 2548000    336.23869    446.30581   -316.52298   -316.83295    258.68366    5260.9816      27.0546      59.6399 -0.00054427862   0.01516814 -2.5788177e-05 -0.043314584 
 2549000    331.91868     440.6664   -309.68033   -309.76718    122.93919    5060.9675      27.0546      59.6399 0.00027279754 -0.012082603 -0.0003660858  0.024253423 
 2550000    343.04165    455.47196   -85.467611   -85.468706    150.25949    5253.7666      27.0546      59.6399 -0.00015223527 -0.015497882 -0.00032551268   0.04434234 
 2551000    337.82554    448.50311    18.311467     18.21052    198.23049    5224.1363      27.0546      59.6399 0.00027682474  0.014153738 0.00025011635  0.018653484 
 2552000    334.42856    444.02989   -36.836291   -36.851436    106.66425    5082.0325      27.0546      59.6399 -0.00084099689  0.009640198 -0.00038851782 -0.033341416 
 2553000    340.84762    452.44832     223.4892    223.23246    179.78832    5250.6543      27.0546      59.6399 7.3703222e-05  0.028659055 0.00011825301 0.0058799779 
 2554000    348.80747    463.07459    133.58846    133.46497    133.39395    5322.6804      27.0546      59.6399 0.0002044114 0.0070347632 0.00029583163 0.0077864841 
 2555000    341.24387    453.06566    321.51355     321.4678    180.65248    5257.4136      27.0546      59.6399 0.00023783499  0.039392868 -3.8975916e-05  0.017565369 
 2556000    339.97169    451.37031   -83.263383    -83.32351    165.52714    5223.3618      27.0546      59.6399 0.0002375155 -0.0077779264 -0.00074365933  0.036302385 
 2557000    342.19383    454.22044    -93.26636   -93.558506    166.07534    5256.9692      27.0546      59.6399 0.00020454363  0.011625433 0.00013891816  0.013638566 
 2558000     342.5619    454.80321    168.80015     168.7256    114.86316    5211.2329      27.0546      59.6399 -0.00027493461 -0.033394799 0.00068612545 0.0076463614 
 2559000    346.90184    460.49265    70.468553    70.225364    111.62306    5272.5591      27.0546      59.6399  0.000371382 -0.010404762 0.00044749138 -0.0042742711 
 2560000    347.85741    461.86524    181.85985    181.85683    68.120099    5243.2724      27.0546      59.6399 0.00015962673  0.017140317 0.00049433799 -0.0038745774 
 2561000    339.87478    451.26012    24.103227    24.085853    195.42706    5251.8199      27.0546      59.6399 0.00025373966  0.010105971 6.2256499e-05  0.017406483 
 2562000     331.2572    439.81852     253.1956    253.17906    120.17573     5048.363      27.0546      59.6399 -0.00042093702  0.012149842 -4.5141949e-05 0.0012196407 
 2563000    337.78798    448.44241    32.205657    32.079647    98.454417    5123.8015      27.0546      59.6399 0.00034056578 -0.015197471 -0.00017620964 -0.021674123 
 2564000    344.53235     457.4265   -208.41514   -208.47343    95.009083    5220.6936      27.0546      59.6399 0.00028399619  0.021607783 0.00037169215 0.0086658215 
 2565000    334.24334    443.68499    -210.4181   -210.66215     62.16892    5034.7816      27.0546      59.6399 -0.0014734862 0.0055103844 -0.00034905356 0.0049447293 
 2566000    336.25789     446.4406   -296.81393   -296.87112    22.358699    5024.9424      27.0546      59.6399 -3.3595331e-05 -0.0070267039 0.00032953676  0.022260868 
 2567000    344.72636    457.63894    37.934761    37.771997    22.762748    5151.3337      27.0546      59.6399 -0.00051549121 -0.010286137 -0.000300625 -0.019896569 
 2568000     338.9388    450.02013   -27.212728   -27.223751    54.103009    5096.5712      27.0546      59.6399 -0.00013338616 0.0011015012 -0.00010583339 -0.019195692 
 2569000    342.49747    454.72664   -95.671614   -95.725394     184.2388      5279.65      27.0546      59.6399 0.00060652123 -0.027640293 0.00042119726 -0.017983762 
 2570000    347.90753    461.84742    169.86405    169.66589    42.877294    5218.7752      27.0546      59.6399 -0.00046561912     0.019511 -3.489872e-05  0.016157283 
 2571000    349.05374    463.37273    221.74715    221.55694    18.774679     5211.725      27.0546      59.6399 0.00023758356 -0.0059303523 6.091047e-05 -0.0078786027 
 2572000    345.83414    459.15554    408.12494    408.06801    68.182124    5213.2338      27.0546      59.6399 1.0029874e-05 -0.032819999 -0.0001947781  0.002888494 
 2573000     341.4912    453.32643    307.93127    307.72912    72.624002    5153.0647      27.0546      59.6399 6.0790179e-05 0.0074446292 -0.00031245666  0.022886975 
 2574000    335.84839    445.72449   -252.19304   -252.64899    136.53836    5133.0298      27.0546      59.6399 1.2236882e-05  -0.04242358 -1.3678392e-05 -0.012814106 
 2575000    332.01071    440.75628    440.97851    440.81695    151.68732    5091.0846      27.0546      59.6399 -0.0001455969 -0.0049438051 -0.00019541158 0.0034834027 
 2576000    338.02674    448.77351    59.650122    59.556678    154.18765    5183.0869      27.0546      59.6399 -0.0014921069   0.03335053 -0.00034617012 -0.021591219 
 2577000    337.79539    448.42404   -112.25112   -112.44238    270.21328    5295.6706      27.0546      59.6399 0.00012804806 -0.0038216557 0.00052335732 0.0028607488 
 2578000    339.78548    451.11221   -309.34847    -309.4337    261.87143    5316.9357      27.0546      59.6399 -0.00045312325 0.0023363079 0.00075533156   0.01235492 
 2579000    338.38507    449.28006    11.250411    11.228158    296.07686     5330.307      27.0546      59.6399 -0.00018606725 -0.0048191763 0.0010645602 0.0019942398 
 2580000    339.53204    450.70732    184.85273     184.6093     202.8257    5254.1196      27.0546      59.6399 0.00080075865 0.0082201476 0.00059121245 -0.0032504132 
 2581000    347.14705    460.90617   -11.457088   -11.496856    105.58793    5270.1719      27.0546      59.6399   0.00071639  0.060562498 0.00039108277 -0.033657085 
 2582000    334.54723    444.06088   -111.93783    -112.2457     343.8466    5320.9803      27.0546      59.6399 0.00010591696 0.0082009867 -0.00096023772  0.034401746 
 2583000    341.49956    453.36247    429.49908     429.3546    270.80909    5351.3742      27.0546      59.6399 -0.00011232819 -0.011228927 -1.0763542e-05 -0.012650523 
 2584000    336.81333    447.10801    213.26999    213.05074    275.48898     5286.336      27.0546      59.6399 -0.00067694393 -0.001675576 7.9170093e-06 -0.0065434892 
 2585000    342.12395    454.10711    60.247061      59.9074    336.14395    5425.9982      27.0546      59.6399 -0.00091078017 0.0040960683 -0.00025994064 -0.016937193 
 2586000    338.43462    449.33269   -152.67436   -152.72704    299.90067     5334.868      27.0546      59.6399 1.0163893e-05 -0.020718828 -0.0009798086 -0.011567768 
 2587000    335.32336    445.21955   -394.32874   -394.34021    330.90108    5319.5815      27.0546      59.6399 -0.00091992624 -0.0063289335 0.00012293196 -0.023917358 
 2588000    341.82802    453.85934    160.62481    160.62088    329.09086    5414.5425      27.0546      59.6399 0.00017485604  0.006914939 -0.00030769421 0.0023270336 
 2589000    337.78218    448.33343   -15.144033   -15.504297    316.55448    5341.8153      27.0546      59.6399 0.0001399955 0.00064268843 1.3510914e-05 0.0024180706 
 2590000    348.97394    463.33781    64.802349    64.776464    377.13679    5568.8998      27.0546      59.6399 0.00014002163 -0.0039928499 0.00031776606 -0.0065812985 
 2591000     340.0744    451.50424   -130.66295   -130.72871    378.75936     5438.122      27.0546      59.6399 0.00056289682   0.03951713 -9.2801134e-05 0.0011646922 
 2592000    338.91231      449.967     136.3335    136.28096    262.74427    5304.8183      27.0546      59.6399 -0.00012755123 -0.0042354795 -0.00030696517 0.0016916303 
 2593000    335.15763    445.00395    251.77667    251.77551    323.84843    5310.0633      27.0546      59.6399 0.00018603329 -0.029952284 -0.00039284356  0.029794608 
 2594000    343.97079    456.69343   -214.12629   -214.15559    387.44863    5504.7788      27.0546      59.6399 0.00045779965 -0.027402214 0.00031596109 -0.037753882 
 2595000    340.49324    452.05185      315.399    315.31354    262.44088    5328.0348      27.0546      59.6399 -0.00038970156  0.021788137 0.0010460551 0.0037955724 
 2596000    346.67944    460.13628    144.77884    144.39437    424.08918    5581.7165      27.0546      59.6399 -0.00070228689  0.043046946 -0.00042792876  0.017556441 
 2597000    337.78913    448.49842   -273.40941   -273.40941    258.14415    5283.5084      27.0546      59.6399 0.00027145715  0.027984115 -0.00013392904  0.015434894 
 2598000     338.3515    449.24196   -250.45294   -250.46021    346.45595    5380.1867      27.0546      59.6399 0.00033701951 -0.014916131 0.00056617683 0.0025635289 
 2599000     345.4603    458.68185    346.53671    346.53222    330.79177    5470.2817      27.0546      59.6399 -7.6177604e-05 0.0038544035 -0.0012337205 0.0029556174 
 2600000    338.50402     449.4433    22.696034    22.686048    247.16606    5283.1659      27.0546      59.6399 0.00065692356 0.0026262051 0.0013163588  0.044765919 
 2601000    336.57824     446.8505   -60.272851   -60.365735    223.85427    5231.2038      27.0546      59.6399 0.00045555889 -0.0037475292 -0.00022190839 -0.012229078 
 2602000    332.60295    441.60611    142.69596    142.68121     282.7065    5230.9148      27.0546      59.6399 -0.00084660131 0.0087309744 -0.0011957257 -0.0083673215 
 2603000    346.31786    459.79426      49.1512    49.086072    125.99004    5278.2381      27.0546      59.6399 0.00014274788 -0.029333428 -0.0003442125  0.018427923 
 2604000    342.74333    455.03655   -64.705471   -64.797502    207.94025    5307.0092      27.0546      59.6399 -0.00035993683 -0.0026536373 0.00056057593 -0.027608936 
 2605000    339.69401    451.00171    58.752348    58.692445    385.43883    5439.1423      27.0546      59.6399 -0.00026524727 -0.032926389 -0.00030238852  0.020152267 
 2606000    340.91709    452.62708    27.478103    27.421498     289.1394    5361.0389      27.0546      59.6399 -0.00081789826  0.045632882 -7.5639821e-05  0.018619013 
 2607000    343.95349    456.63324     -518.611   -518.72639    273.57821     5390.651      27.0546      59.6399 -0.00071192859  0.017061074 2.5910822e-05  0.022789774 
 2608000    339.41172    450.61194   -152.28958   -152.38409    246.34217    5295.8459      27.0546      59.6399 -0.00088871191  0.011240815 -3.8635827e-05 -0.014735448 
 2609000    337.05162    447.51885    197.93414    197.93336    221.02391     5235.416      27.0546      59.6399 -0.00058677995   0.01473308 0.00064892325 -0.031844347 
 2610000    339.69305    451.02621    287.57381    287.57353    247.22013    5300.9093      27.0546      59.6399 -0.0013765234  0.059352095 7.7188411e-05 -0.0049578672 
 2611000    339.44558    450.69655   -79.889611   -79.892411    179.86148     5229.869      27.0546      59.6399 0.00061013377 -0.011158183 -0.00015715764 -0.025581604 
 2612000    340.51711     452.1156   -77.919091   -77.930381      190.518    5256.4669      27.0546      59.6399 0.00050103318 0.0096880614 0.0013294184 0.0044588456 
 2613000    338.82449    449.83924   -123.01829   -123.09663    251.56729    5292.3348      27.0546      59.6399 1.339198e-05 -0.0039743072 -0.00051731234  0.020383213 
 2614000    347.02784    460.72448    58.828481    58.734559     211.3475    5374.1581      27.0546      59.6399 2.8134488e-05 -0.0026173608 0.00045543929  0.011294692 
 2615000    346.83815    460.42906   -218.43627   -218.63093    141.88085    5301.8693      27.0546      59.6399 -9.9857128e-06  0.027821076 -0.00073271707 -0.0016327717 
 2616000     346.1093    459.50696     33.29203    33.202894     184.4495    5333.5947      27.0546      59.6399 -2.1225281e-05 -0.0055431436 0.00050959316 0.0062712879 
 2617000    336.64005    446.61033   -65.819949   -66.658192     181.4408    5189.7099      27.0546      59.6399 3.4585335e-05 -0.0047311018 4.9545378e-05 0.0079235573 
 2618000    338.01461      448.749     -483.864   -483.97688    111.27739    5139.9961      27.0546      59.6399 -0.0004163631 0.0068191465 -0.00072130231 -0.0058064457 
 2619000    344.47819    457.33923    215.07485    214.98102    131.54074    5256.4196      27.0546      59.6399 0.00052101204  0.011663265 0.00055407231  0.017532934 
 2620000    345.29768    458.46619    130.97651    130.97261     73.23412    5210.3047      27.0546      59.6399 -0.00054257689  0.027487481 -0.0008314451  0.029467743 
 2621000    339.71819    450.83397    179.46666     178.9445    62.422656    5116.4859      27.0546      59.6399 4.8657684e-05  0.034846147 0.00032178628 -0.0047842756 
 2622000    343.01677    455.32423     53.44874    53.182359    185.82583    5288.9628      27.0546      59.6399 0.00012286965 -0.019881503 0.00058104145  0.012441901 
 2623000    338.20135    448.96464   -275.74857   -275.93616    222.14002    5253.6369      27.0546      59.6399 4.3273352e-05 -0.0039372207 0.00012007757  0.023016967 
 2624000    342.85509     455.2129   -153.74885   -153.77621    97.715499    5198.4472      27.0546      59.6399 -0.00033186905 -0.0079677857 -0.00027087315 -0.014329169 
 2625000     336.5511    446.83816    67.440415    67.402337    193.10113    5200.0468      27.0546      59.6399 0.00038957177 -0.010366224 -0.0010173779  0.015808324 
 2626000    332.38302     441.3202    64.862534    64.861912    187.80673     5132.743      27.0546      59.6399 -0.00033563128  0.075173558 1.5302437e-05 -0.020790621 
 2627000    335.87328    445.95436    84.407193    84.406505    169.77836      5166.64      27.0546      59.6399 0.00011332425 0.0043975738 0.00028414925 -0.0094557893 
 2628000    337.08368    447.55964    163.46901    163.46411    95.158711    5110.0278      27.0546      59.6399 2.9309065e-05 -0.0061061007 -0.00035465505 0.00059169306 
 2629000    335.71203    445.72704    13.810354     13.77908    254.44365    5248.9064      27.0546      59.6399 -0.00033703107 -0.0018944216 -9.7070197e-05 -0.027214965 
 2630000    339.91444    451.31979   -295.14002   -295.14118    212.66688    5269.6498      27.0546      59.6399 0.00033603511 -0.022594898 0.00024586066 -0.026918925 
 2631000    337.17149    447.67208    257.51309    257.49859    280.70956     5296.885      27.0546      59.6399 -0.00030896491  0.018567768 -0.00042636357  0.020688913 
 2632000    336.65183     446.9818   -92.892225   -92.907418     245.2427    5253.6871      27.0546      59.6399 -0.00035972456  0.030705924 -0.0011891515 0.0086138726 
 2633000     342.0852    454.16668   -180.64254    -180.7254    244.37274    5333.6505      27.0546      59.6399 5.7452728e-05  0.002946313 0.00048529287 -0.0014093895 
 2634000     334.4649    444.07136   -257.26464   -257.29545    245.69048    5221.5994      27.0546      59.6399 -0.00014935363  0.017926149 -0.00019420411 0.00096643142 
 2635000     337.3964    447.72003   -84.506961    -85.10128    257.55903    5277.0805      27.0546      59.6399 0.0002398603 -0.031097647 0.00061443426  0.003747248 
 2636000     336.7958    447.15613    257.22781    257.17368    234.43244    5245.0187      27.0546      59.6399 0.00067820369  0.033182557 -0.00010595585 -0.0062169334 
 2637000    336.44164    446.61107   -99.042429    -99.26964    196.09769     5201.415      27.0546      59.6399 0.00012575376 -0.020448148 0.00038828882 -0.0068995986 
 2638000    339.99013    451.40668   -415.22709   -415.25973    373.65886    5431.7679      27.0546      59.6399 0.00083589495 0.0099680259 0.00050480803 0.0031342988 
 2639000    342.20813     454.3564   -76.182091   -76.203679    203.38788    5294.4945      27.0546      59.6399 0.00015263312 0.0046053664 2.0656611e-05 -0.014727765 
 2640000    332.80095    441.83863   -241.41125   -241.49624    336.12545    5287.2793      27.0546      59.6399 0.00021113057 -0.012311968 0.00033998486  -0.01318208 
 2641000    337.56963    448.20371   -41.725784   -41.733341    252.03233     5274.131      27.0546      59.6399 0.00038647483 0.0076946402 0.00016050081  0.002671594 
 2642000    344.07362    456.75978    201.01065    200.81901    322.54356    5441.4035      27.0546      59.6399 7.3465959e-05 -0.0021132003 0.00012191526   0.01157982 
 2643000    340.59383    452.18329   -269.27975   -269.37011    279.24793    5346.3383      27.0546      59.6399 -0.0003857529 0.0049893573 0.00098502109 -0.009175891 
 2644000    342.93502    455.33072    207.15579    207.15548    272.34844    5374.2692      27.0546      59.6399 -0.00079219688 -0.0018045068 -0.00092297669 0.0027267147 
 2645000    339.16026    450.29925     145.5101    145.46459    283.59271    5329.3555      27.0546      59.6399 -2.2845875e-05  0.017173948 -0.00028616037 -0.0098370701 
 2646000     338.4135    449.32662   -145.40317   -145.40504    289.65409    5324.3073      27.0546      59.6399 0.00011138363 -0.004020172 -0.00047077595 -0.014267341 
 2647000    337.87235    448.55579    36.463727    36.340876    236.45242    5263.0546      27.0546      59.6399 -7.2089529e-05 0.0016673455 -0.00042161455 -0.0074354637 
 2648000    336.11227    446.27196  -0.11884226  -0.11886571    318.68037    5319.0975      27.0546      59.6399 1.8154619e-05 0.0062325499 -0.00027255978 -0.011971004 
 2649000    330.21957    438.44061   -94.158173   -94.175175    242.19745    5154.9477      27.0546      59.6399 8.8626112e-05  0.012254807 0.00055689913 -0.0091131872 
 2650000    336.87328    447.28209    21.694837    21.694123    232.73055    5244.4695      27.0546      59.6399 -0.00013036679 -0.019942426 -0.00062043132  0.010257928 
 2651000    337.14654    447.64233    206.45241    206.44573    218.02342    5233.8276      27.0546      59.6399 4.6167119e-05 -0.016603658 -0.00040940058 -0.0047829074 
 2652000    338.92309    449.97385    -415.7217   -415.79151    223.51056    5265.7449      27.0546      59.6399 0.00036189443  0.007940624 0.00022434305 -0.020299484 
 2653000    340.19571    451.69354   -272.77014   -272.77062    285.34708    5346.5145      27.0546      59.6399 -0.00080706231  0.022284756 1.5651349e-05  0.013477843 
 2654000    344.50308    457.41019    157.06391    157.05779     329.1032    5454.3523      27.0546      59.6399 2.814721e-05 0.0032593416  0.000497112 0.0065704812 
 2655000    333.26357    442.48274   -299.99334   -300.00924    303.01711    5261.0535      27.0546      59.6399 -0.00051370428 -0.0061173129 -0.00072766252  0.036373721 
 2656000     341.9657    454.04364   -249.77358   -249.77405    310.12382    5397.6237      27.0546      59.6399 -0.00081445296  0.010785348 -7.3168532e-05 -0.013323827 
 2657000     342.9485    455.31352   -322.73608   -322.81758    357.09406    5459.2153      27.0546      59.6399 6.9737309e-05 -0.010933581 -7.8083999e-05 -0.0059281336 
 2658000    327.73999    435.10957    213.60325    213.49656    279.17426    5155.0351      27.0546      59.6399 0.0001431202 0.0027918703 4.2316071e-05  0.018599393 
 2659000    339.09131    450.07122    145.07645    144.71525    141.63479    5186.3718      27.0546      59.6399 0.00032194967 0.0056471742 0.0010107411 0.00048591259 
 2660000    341.73666    453.69485   -75.442452   -75.546299    115.43444     5199.527      27.0546      59.6399 -0.00012263871 -0.020245654 -9.6865646e-05  -0.01369632 
 2661000       336.84    447.23778    179.43068    179.42969    91.609772    5102.8535      27.0546      59.6399 -6.0910139e-05 -0.0029116616 0.00085221327 -0.0014175335 
 2662000    343.51821    456.08388    108.55351    108.50423    180.25145    5290.8485      27.0546      59.6399 -0.00012725895 -0.0098580154 -0.0001858497 -0.013316495 
 2663000    344.78945    457.74452    317.42438     317.3121    208.45563    5337.9651      27.0546      59.6399 -0.00095800849   0.02888903 -2.8493898e-05 -0.0011961531 
 2664000    344.77138    457.76519    72.121066    72.112096    249.43494    5378.6756      27.0546      59.6399 -7.2010763e-05 -0.022901792 0.00038401257  0.021538334 
 2665000      340.029    451.47138    285.24385     285.2415    159.72459    5218.4119      27.0546      59.6399 -0.00033675056 -0.0015954153 -0.00037618314 0.0052876973 
 2666000    332.19233      441.045    -1.981279   -2.0328278    123.55626    5065.6556      27.0546      59.6399 -0.0005352854 0.0048066331 -0.00018026794  0.010438422 
 2667000    336.38401    446.41219   -115.88386   -116.39409     176.9328    5181.3928      27.0546      59.6399 -7.4085418e-05 -0.021383126 -0.00013453306 -0.023368609 
 2668000    335.26961    445.12172     92.34547    92.272817    96.251454    5084.1322      27.0546      59.6399 0.00051948344  0.013674713 -0.00033830137  0.019469124 
 2669000    341.37786    453.22495   -489.68162   -489.77042    197.16435    5275.9189      27.0546      59.6399 -0.00028422213 -0.019226386 -2.6168202e-05  -0.01522057 
 2670000    338.81736    449.86308    201.08903    201.08772    193.14992    5233.8114      27.0546      59.6399 -0.00064667522   0.01486478 3.0631678e-05  0.016679025 
 2671000    336.70313    447.05266   -16.750722   -16.759578    173.20575    5182.4133      27.0546      59.6399 0.00011788694 -0.014431272 -0.00022037798 -0.0032543207 
 2672000    340.01572    451.42828    313.54801    313.48676     192.4355    5250.9252      27.0546      59.6399 0.00058461859  0.011557734 0.00011214719 -0.021544869 
 2673000    340.00572    451.39057   -291.64015   -291.75791    253.75581    5312.0967      27.0546      59.6399 0.00046999014 -0.0050058567 0.00046730486 -0.0014770478 
 2674000    344.79568     457.7915    148.34307    148.32029    208.11639    5337.7186      27.0546      59.6399 0.00037045973 0.0039070883 0.00056009859  0.001239077 
 2675000    336.74019    447.09812    194.36652    194.34903    339.78351    5349.5423      27.0546      59.6399 0.00031856193  0.033017113 0.00018300203 -0.0018525294 
 2676000    335.18336    445.03843    84.193616    84.193197    267.32919    5253.9268      27.0546      59.6399 0.00032292779 0.0047658932 0.0001925248  0.045802083 
 2677000    346.78455    460.43964    -173.1339   -173.13949     196.6684    5355.8595      27.0546      59.6399 0.00034275386  0.010222854 5.9989136e-05 0.0082666239 
 2678000    345.62958    458.86884    42.781971    42.690129    112.68597    5254.6942      27.0546      59.6399 0.00062635758  0.021469893 -0.0013889902  0.031994331 
 2679000    340.85109    452.47679   -63.466419   -63.667963    266.60656    5337.5243      27.0546      59.6399 -0.00052983527 -0.0058445505 -0.0008111592 -0.015194747 
 2680000    342.35925    454.54644    424.80575    424.75963    104.48009     5197.835      27.0546      59.6399 -0.00074567921  0.049772605 0.00063097679  0.031682542 
 2681000    345.79038    459.10659    172.63692    172.60114     158.8238    5303.2244      27.0546      59.6399 -0.00015427589  0.010442192 -0.00056172413 -0.006151398 
 2682000    334.02915    443.50034     33.04361    33.030249    310.31094     5279.737      27.0546      59.6399 0.00010995002 -0.0015189393 0.00062540707 0.0028529208 
 2683000    344.10064    456.83009    79.371057    79.259089    197.69757    5316.9595      27.0546      59.6399 -0.0006230205  0.012843428 -0.001788217 -0.013946803 
 2684000    345.65375    458.83901      103.882    103.64695    261.58623    5403.9541      27.0546      59.6399 -0.00015318499 -0.008624044 0.00014249338 -0.020863552 
 2685000    340.94139    452.68322   -155.44818   -155.44956    182.60991    5254.8709      27.0546      59.6399 0.00045172609  0.021738105 -0.00012101796  0.011545156 
 2686000    336.66154    447.00092   -237.38877   -237.38956    255.04064    5263.6295      27.0546      59.6399 -0.0010438557 -0.00068377726 -0.00032375029 -0.006339147 
 2687000    333.04478    442.16667    219.52706    219.45201    307.44809    5262.2295      27.0546      59.6399 -0.0003435525 0.0042523348 0.00098508367 0.0050927844 
 2688000    345.55538    458.80914    121.43905    121.43697    257.48174    5398.3862      27.0546      59.6399 -0.00069818999 -0.0067935967 0.00018385438 0.0015777948 
 2689000    338.44228    449.29676    226.13409    225.97478    313.31133    5348.3926      27.0546      59.6399 0.0004925379  0.021699704 0.00052161735 0.0066459915 
 2690000    338.92973    449.90374    13.653078    13.400695     248.7135    5291.0467      27.0546      59.6399 8.4663307e-05 -0.0016400703 3.154265e-05 0.0045157619 
 2691000    334.14409    443.58583   -98.375622   -98.544249    363.78328    5334.9195      27.0546      59.6399 0.00013237925 0.0011318468 0.00021252955  0.011636695 
 2692000    334.71339    444.39973    86.389051    86.354614    320.29101    5299.8968      27.0546      59.6399 -0.00027976829 0.0091924283 0.00017644985 -0.011780482 
 2693000    339.68308    450.98831   -28.868278   -28.925637    121.74917    5175.2902      27.0546      59.6399 -0.00071351588 -0.0030795471 -0.00034126224  0.014858191 
 2694000    335.96868    446.05539    182.83909    182.77911    342.35429    5340.6353      27.0546      59.6399 -9.5253959e-05  0.017645982 -0.00023943872 -0.013134203 
 2695000    342.99515    455.32799    56.891347    56.700068    276.95375    5379.7691      27.0546      59.6399 0.00070684659 -0.0042991624 -0.0003665404 -0.018312664 
 2696000    343.51418    456.08534   -93.043752   -93.077271    270.49132    5381.0283      27.0546      59.6399 -0.00011092614  -0.02130948 5.9151384e-05 -0.0092054524 
 2697000    333.77299    443.16599    -195.8944   -195.89444    301.77519    5267.3904      27.0546      59.6399 -0.00025479953 -0.0064664402 -0.00034342175   0.02629481 
 2698000    337.75915    448.45545   -294.53368   -294.54098    242.37395    5267.2921      27.0546      59.6399 0.0008406575  0.011145895 -0.00047137248 -0.0053081099 
 2699000     336.6831    447.02141   -17.179008     -17.1986    285.27028    5294.1798      27.0546      59.6399 -0.00040600797 -0.0031232652 0.00010838766 -0.030316072 
 2700000    340.80606    452.43772    67.660614    67.506993    216.49875    5286.7465      27.0546      59.6399 -0.00022192407 0.00044861717 0.0001023083  0.023747467 
 2701000    338.30858    449.17742    -136.0793   -136.10402    218.87106    5251.9632      27.0546      59.6399 4.8722059e-05 -0.012384954 -0.00037823477 -0.011384344 
 2702000    337.40196    447.98153    -149.6086   -149.61513    273.25515    5292.8594      27.0546      59.6399 -0.00058104317 -0.0046901963 -0.00014839874  0.007042265 
 2703000    338.73586    449.74815     187.2717    187.25486    251.76027    5291.2091      27.0546      59.6399 0.00055896112 0.0038611096 0.0010113596 -0.013067814 
 2704000    337.94073    448.67544   -124.90391   -124.96003    404.19296    5431.8125      27.0546      59.6399 -0.00084876467 -0.0088425605 4.4781688e-05 -0.011793263 
 2705000    340.90218    452.63076    93.301878    93.299579    138.88836     5210.566      27.0546      59.6399 -0.00093422518  0.015232264 -0.00022315703 -0.020534047 
 2706000    335.89907    445.98304   -109.72273   -109.73626    296.93954    5294.1848      27.0546      59.6399 -0.00044852348 0.0052557577 0.00014554548 -0.013608201 
 2707000    338.18331    448.81182   -109.72128   -110.20695     148.3315      5179.56      27.0546      59.6399 0.00053449483  0.019041167 -0.00049920269 -0.0086637117 
 2708000     339.9321    451.31618    162.77996     162.7162    242.87999    5300.1257      27.0546      59.6399 0.00017143876 0.0069661772 -0.00014252823 -0.0098668897 
 2709000    338.94518    450.03193    262.99086    262.98756    211.47951    5254.0425      27.0546      59.6399 0.00022458751  0.015752241 -0.00013901602 -0.012863086 
 2710000    348.70448    462.97768    235.43235      235.401    200.41935    5388.1736      27.0546      59.6399 0.0004162732  -0.00727977 -0.00025453811 -0.0062319051 
 2711000    341.99995    453.99817    498.40001    498.18918    151.37946    5239.3889      27.0546      59.6399 -8.4903542e-05 -0.010501681 0.00093740679 -0.025657203 
 2712000    344.82407    457.77496   -87.719338   -87.867556    221.82121    5351.8458      27.0546      59.6399 0.00045902197 -0.029320866 -0.00036761766  -0.01390789 
 2713000      338.836    449.83536   -53.159114   -53.281793     170.1567    5211.0954      27.0546      59.6399 -9.3020541e-05 -0.024810229 -0.0003394873 -0.022588096 
 2714000    343.84947    456.54467    203.34869    203.34789    170.80071    5286.3259      27.0546      59.6399 -0.00044885504 0.0036001881 -7.550712e-05 -0.0021975598 
 2715000    331.99783    440.80847   -112.26765   -112.26896    339.40468    5278.6104      27.0546      59.6399 -4.2438425e-05 -0.012912459 0.0006240219  0.020552185 
 2716000    342.19784    454.16019    167.17353     166.7297    298.40605    5389.3596      27.0546      59.6399 2.2533325e-07 -0.0011272889 -4.7530573e-05 0.0028217505 
 2717000    339.77482    451.12622    41.644954    41.624841    239.92154    5294.8273      27.0546      59.6399 0.0006489743 0.00024483034 -8.326765e-05 -0.0080823515 
 2718000    332.47814    441.44672    201.83725    201.83715    250.67272    5197.0241      27.0546      59.6399 -0.00016955397  0.008216406 2.1101098e-05 0.0047726192 
 2719000    339.20578    450.36803   -9.2924017   -9.3186263    128.25172    5174.6917      27.0546      59.6399 -0.00015125342 -0.0067650333 -2.9446992e-05  0.012553756 
 2720000    346.23771    459.69915    39.910781     39.87182    188.24162    5339.2972      27.0546      59.6399 0.0004061706 0.0050201449 -0.0001312101  0.001102523 
 2721000    341.02215    452.78979   -152.46008   -152.46297    308.24247     5381.705      27.0546      59.6399 0.00025370882 0.0072792247 0.00013616119  0.019446887 
 2722000    336.70362    447.05432   -113.65269    -113.6592    195.62913    5204.8439      27.0546      59.6399 -0.00074671393  1.36918e-05 6.1898299e-05 0.0079368315 
 2723000     335.9806    446.09106   -181.15522   -181.16929    104.34194    5102.8002      27.0546      59.6399 -6.6076198e-06  0.018049106 0.00038067512 -0.018957663 
 2724000    338.45158    449.36612    201.35336    201.32593    284.38193    5319.6015      27.0546      59.6399 -0.00041341786 0.0097852687 -0.00081972842 -0.0057481281 
 2725000    344.52588    457.43808   -17.763323   -17.774959    239.86331    5365.4516      27.0546      59.6399 0.00026759489 -0.020460202 0.00094919173   0.01212181 
 2726000    340.95862    452.69707     141.2584    141.23615    113.02979    5185.5471      27.0546      59.6399 -6.9682285e-05 -0.016284822 -0.0002827651  0.014784709 
 2727000    346.74611    460.28367    219.87148    219.62319     265.4628     5424.082      27.0546      59.6399 -0.00020609575 -0.0042818746 -0.00045443455 -0.00045146667 
 2728000     338.6584     449.6217     203.4914    203.41998    262.38318    5300.6796      27.0546      59.6399 -9.5415961e-05 -0.019972888 -0.0003302992 -0.011105436 
 2729000    338.04954    448.84413   -65.154178    -65.15429     328.0695    5357.3079      27.0546      59.6399 -0.00030980975 -0.0056418194 -0.00021915349  0.016165666 
 2730000    333.45074    442.68605    3.8410047    3.7205186    313.74107    5274.5621      27.0546      59.6399 0.00026764622 -0.019023283 0.00010791542  0.021313782 
 2731000    343.99357    456.72948    48.558089    48.542219    227.23421    5344.9032      27.0546      59.6399 0.00011733212 -0.021351535 0.00081224497 -0.00069260843 
 2732000    337.92238    448.66266    341.09582    341.06648    207.76407    5235.1107      27.0546      59.6399 -8.2030664e-05 0.0039097826 0.00068521841 0.0057853527 
 2733000    337.00747      447.453    17.461991    17.444479     364.6462    5378.3815      27.0546      59.6399 -0.00030280166 0.0074115407 -0.00013508613 -0.027699113 
 2734000    343.87373    456.57534     -84.9608   -84.965151    304.18496    5420.0711      27.0546      59.6399 0.0006597186  0.022406184 0.00047913931 0.0089578606 
 2735000    342.44136    454.55276   -251.99831   -252.28197    251.11291    5345.6893      27.0546      59.6399 -0.00022512903 -0.036089554 0.00059279637 -0.023839456 
 2736000    343.71404    456.35982    10.648843    10.636406     114.4694    5227.9798      27.0546      59.6399 0.00064965206  0.011188405 -0.00013480853 -0.00051778512 
 2737000    347.02346    460.74737   -95.616927   -95.644452    202.57872    5365.3242      27.0546      59.6399 -0.0012576328 -0.0066462731 -0.00052463991 0.0077957732 
 2738000    335.20668    445.05743   -125.33847   -125.36657    349.29674    5336.2413      27.0546      59.6399 0.00087379774  0.014810019 -8.9840893e-05 0.00076726996 
 2739000    336.51401    446.78668   -2.5998466   -2.6430886    218.07992    5224.4739      27.0546      59.6399 -0.00019062161    0.0130608 0.00020232732 -0.010158396 
 2740000    343.39682    455.93864   -1.4367749   -1.4491737    241.24789    5350.0389      27.0546      59.6399 -3.2872184e-05 -0.030873981 -0.00029783914 0.0022183757 
 2741000    336.11188    446.24874    8.6847814    8.6322403    405.99455     5406.406      27.0546      59.6399 -0.00010313509  0.010559114 -0.00021257485 -0.0059711972 
 2742000    337.36425    447.93198   -81.540389   -81.545726    341.24471    5360.2879      27.0546      59.6399 0.0012505946   0.02686403 -0.00075255109 -0.0033615837 
 2743000     341.5086    453.43559    124.13561    124.13252    427.70275    5508.4023      27.0546      59.6399 0.00025823773 -0.00081814157 0.00033898947  0.034785591 
 2744000    342.56198    454.83531    192.19937    192.19881    387.81578    5484.1867      27.0546      59.6399 1.8909431e-05 0.0010885296 -0.00047870203 -0.014920262 
 2745000    341.44361    453.35056   -78.474498   -78.474703    251.13655    5330.8693      27.0546      59.6399 0.00033729677  0.052706847 -0.00020637997 -0.023048078 
 2746000    335.48398    445.40044    39.358549    39.272214     463.7822    5454.8522      27.0546      59.6399 -0.00014568879 -0.0034706032 0.00020405402 -0.012004326 
 2747000    339.56803    450.86009   -25.565753   -25.566355    238.71933    5290.5486      27.0546      59.6399 -0.00084562787  0.048760991 0.00054561878 -0.0055776357 
 2748000    348.04136    461.95793   -224.25596   -224.60951    140.96979    5318.8587      27.0546      59.6399 -0.00016765709 -0.014519638 3.5222524e-05 -0.032063915 
 2749000    340.11746    451.45681    35.197625    34.889895    277.67256    5337.6759      27.0546      59.6399 -0.00053258642 -0.0039093196 3.1815543e-05 -0.022663968 
 2750000    344.94115    457.99139    60.410646     60.40348    326.97292    5458.7394      27.0546      59.6399 -9.8676296e-05 -0.013599813 0.00020849948 -0.0041810039 
 2751000    344.14356    456.89158   -11.127472   -11.229031    148.07641    5267.9769      27.0546      59.6399 -0.00026206339 -0.013345973 0.00042182415  0.018138899 
 2752000     336.6951    446.97056   -11.286748   -11.460842    173.62329    5182.7114      27.0546      59.6399 -0.00018958061 -0.024087446 -0.00031839285  0.011021063 
 2753000    345.14224    458.19018   -166.80313   -166.96805    155.95718    5290.7152      27.0546      59.6399 0.00030067606 -0.022549089 -0.00042217555 -0.0012114407 
 2754000     344.3961    457.12325   -25.365087   -25.706371    224.19338    5347.8509      27.0546      59.6399 -0.00023911357 -0.019226985 6.910919e-05 0.0056194252 
 2755000    340.35852    451.86984    484.72399    484.63132      133.486    5197.0755      27.0546      59.6399 0.00011461498   0.01436441 0.00089308834 0.0088776604 
 2756000    335.30279    445.17106    257.25145    257.19101    204.51989    5192.8943      27.0546      59.6399 0.00061214151 0.0020529198 -0.00034393383  0.021527444 
 2757000    350.26679    465.04903    320.89179    320.85348    136.80845    5347.8056      27.0546      59.6399 -0.00036354546 0.0015709017 0.00015326497  0.034556222 
 2758000    340.07124    451.42804    253.85609    253.62376     147.1524    5206.4681      27.0546      59.6399 0.00012303775 -0.0066592685 -3.1538727e-05  0.029262679 
 2759000    344.66156    457.58221    45.942437    45.847485    223.05786    5350.6647      27.0546      59.6399 -0.00034159517  0.025695918 -0.00049351297  0.014804083 
 2760000    339.19391    450.34789    59.241768    59.205419    121.23681    5167.5002      27.0546      59.6399 0.00041895774 0.00063424825 -0.00099451115  0.018464066 
 2761000    339.11373    450.25595    1.4102994    1.4075309    174.10834    5219.1789      27.0546      59.6399 0.00031166053 -0.0065995851 -0.00045209037 -0.0027939584 
 2762000    339.97851    451.39272    34.878205    34.848977    179.24377    5237.1798      27.0546      59.6399 0.00024157957 0.0031824619 0.00051033233 0.0051363668 
 2763000    343.90034     456.6122    -31.51745   -31.518269    254.78575    5371.0678      27.0546      59.6399 -0.00017880498 -0.0038172908 3.9618705e-05 -0.029342163 
 2764000    343.59607     456.1533     185.4187    185.29089    172.65949    5284.4148      27.0546      59.6399 0.00052120603 -0.025240695 0.00033206897 -0.0016566727 
 2765000    336.11641    446.27238    231.14416    231.13238    223.15177    5223.6305      27.0546      59.6399 -0.00011924791 -0.036776443 0.00073948937 0.0026277819 
 2766000    339.58135    450.83131   -309.87692   -309.98498    238.95217    5290.9796      27.0546      59.6399 -0.00069034972  0.015972746 -0.0002576152 0.0086640966 
 2767000    337.16898     447.6449    237.58282    237.51316    271.41287     5287.551      27.0546      59.6399 -0.00030021039 -0.011028553 -0.00057365536  0.008855016 
 2768000      340.849    452.51649    30.448953    30.345676    282.30465    5353.1912      27.0546      59.6399 0.00029873352 -0.00034926873 -0.0013500435 3.179393e-05 
 2769000    337.72683     448.3877   -29.843759   -29.908516    303.75821    5328.1955      27.0546      59.6399 0.0002833705 -0.011404262  1.45931e-05 0.00077890917 
 2770000    340.56743    452.18062   -343.20616   -343.22158    93.978645    5160.6762      27.0546      59.6399 0.00011689713 0.0026552956 0.00091471776 0.0065436658 
 2771000    336.01061    446.13526    106.02272     106.0187    225.90309    5224.8079      27.0546      59.6399 -0.00012491513 -0.016896284 -0.00015480383 -0.012927748 
 2772000    343.97242    456.69058   -282.08584   -282.12672    201.89583    5319.2502      27.0546      59.6399 0.00046901329 0.0094604616 -0.00040678936 0.0070144626 
 2773000    344.33928    457.18793   -324.48376   -324.50094    267.66676     5390.479      27.0546      59.6399 -0.0012206249  0.011746535 -0.0003087106 -0.0031910084 
 2774000    335.97791    446.05545   -80.707669   -80.795864    320.28217    5318.7004      27.0546      59.6399 -0.00042453895  0.028844776 -0.00068642225 -0.0024433032 
 2775000    346.03831    459.37836   -33.728066   -33.896648     182.6386    5330.7278      27.0546      59.6399 -0.00044617601  0.011119819 -0.00076511031 -0.0046831123 
 2776000    346.38793    459.85861    35.592598     35.46114    412.32993    5565.6204      27.0546      59.6399 1.8060482e-05  0.017390864 -0.00059065715 -0.010781707 
 2777000    337.34266    447.88365    138.99168    138.94085    253.94206    5272.6641      27.0546      59.6399 0.00010924736  0.011340482 2.0728191e-05 0.0060767103 
 2778000     329.9703    438.11603    55.872208    55.869999    200.39327     5109.435      27.0546      59.6399 -0.00030045046 -0.0011539001 0.00017660136 -0.0013062246 
 2779000    345.55675    458.79425   -45.257691    -45.29839    135.47321     5276.398      27.0546      59.6399 -0.00056713552 0.0010927831 3.130138e-05  0.012131301 
 2780000    347.97434    462.01622   -60.713964   -60.726861    187.39813      5364.29      27.0546      59.6399 0.00044676056 -0.010372643 -7.6664627e-05 0.0023540469 
 2781000    338.46502    449.36341   -41.921731   -41.996722     222.0458    5257.4654      27.0546      59.6399 -0.0004366085   0.01664553 4.2298228e-06   -0.0219625 
 2782000    339.21188    450.38115    172.65136    172.63676    231.86532    5278.3961      27.0546      59.6399 0.0006391317 -0.011195024 -0.00091368832 0.0095777108 
 2783000     340.6423    452.28653    143.52621    143.52583    268.84134    5336.6528      27.0546      59.6399 -6.4804418e-05 -0.0042579319 -4.7478917e-05  0.019726259 
 2784000    338.22363    448.86146    253.79973    253.30506    191.83806    5223.6664      27.0546      59.6399 -0.00013079068 -0.017885769 0.0005077885  0.035728293 
 2785000    333.21518    442.37636   -228.66609   -228.77947    291.29281    5248.6094      27.0546      59.6399 -2.0431467e-05 -0.013693575 -6.6208295e-05 -0.022614454 
 2786000    343.20925    455.66345    285.99442    285.92153    289.54228    5395.5428      27.0546      59.6399 0.00017983464 -0.0045411626 0.00092728559  0.016902181 
 2787000     340.9219    452.64529    40.930408    40.901162    53.150978     5125.122      27.0546      59.6399 -0.00092770136 -0.015509739 0.00020692327 0.00014448962 
 2788000    335.01395    444.76709    106.56487    106.45712    233.26833    5217.3455      27.0546      59.6399 0.00051403897  0.030707883 -0.00045604472 -0.013296253 
 2789000    340.58837    452.21015   -39.462734    -39.47418    182.82767    5249.8368      27.0546      59.6399 -0.00030056774  0.019485976 -0.00020763339 0.0059822235 
 2790000    334.94835    444.70776    59.489261    59.445742     178.4288      5161.53      27.0546      59.6399  0.000246131 -0.020067633 -0.0001925472 -0.0092765506 
 2791000    341.27974    453.09402      370.187    370.09667    155.69761    5232.9925      27.0546      59.6399 -0.00022886742 -0.039588224 -0.00068665942  0.056725983 
 2792000    337.92715    448.65041   -112.38254   -112.45483    78.908288    5106.3258      27.0546      59.6399 0.00027204293 -0.012664498 3.9167598e-05 -0.014358751 
 2793000    339.43155    450.63382    28.554447    28.449629      137.257    5187.0558      27.0546      59.6399 0.00011292197 -0.018844671 -0.00049357906 -0.018627433 
 2794000    343.63555    456.07266  0.099338237  -0.33624647    64.105776    5176.4484      27.0546      59.6399 -0.00020635892  0.016308885 0.00017174891 0.0041497449 
 2795000    337.46755    448.07041   -155.52755   -155.52992    206.06579    5226.6457      27.0546      59.6399 -0.0004222155 0.0061499175 -0.00022946493 -0.014941492 
 2796000    337.15165    447.60255    197.94619    197.83178    73.265971    5089.1463      27.0546      59.6399 -0.00022466307 -0.0098675933 -0.00042667718 -0.010475121 
 2797000     341.0035    452.68865   -258.25648   -258.43606    78.232572    5151.4177      27.0546      59.6399 -0.0014000485  0.018216177 -8.2556625e-05 -0.0079638331 
 2798000    336.41851    446.62958   -77.530712    -77.64406     108.1278     5113.101      27.0546      59.6399 0.00028132323  0.027049786 0.00058598189  0.025004163 
 2799000    339.88155    451.27586    432.16535     432.1636    93.081417     5149.575      27.0546      59.6399 -0.00039984719 -0.013403069 0.00020441083  0.022737379 
 2800000    354.16587    470.24247    142.66503    142.66477    114.38382    5383.3884      27.0546      59.6399 -8.534579e-05 -0.019077941 0.00013018557 -0.010051257 
 2801000      334.424    444.01475    289.06799    289.03184    202.09677    5177.3972      27.0546      59.6399 -0.00045976645  0.034508158 0.00036429484  0.022850697 
 2802000     332.4569    441.40142    3.2500691    3.2104124    194.45687    5140.4923      27.0546      59.6399 2.7503189e-05 -0.0082715593 0.00019296687  -0.01278789 
 2803000    340.10798    451.55827    340.45623     340.4123    92.619986    5152.4822      27.0546      59.6399 0.0010014539 0.0060472975 -5.5125056e-05 -0.016268213 
 2804000    340.08625     451.5464   -61.928791   -61.933458    99.622018     5159.161      27.0546      59.6399 0.00018731252  0.011840762 -0.00053421018  0.028588978 
 2805000    340.09826    451.37954   -138.57478   -139.00226    71.319075    5131.0367      27.0546      59.6399 0.0002454654 -0.002705533 0.00056152821  0.011516376 
 2806000    345.03115    458.11352   -282.99483    -282.9959    229.36175    5362.4671      27.0546      59.6399 0.00041305094  0.013184307 -0.00040326175 -0.0023538441 
 2807000    342.04197    454.12763    177.58697    177.54655    237.63809    5326.2727      27.0546      59.6399 0.0003120664 0.0021858699 0.00033050034  0.026859988 
 2808000      338.839    449.89157    75.011882    75.010016    196.57969     5237.563      27.0546      59.6399 -0.00017215328 0.0044671854 -0.00013908529  0.022735755 
 2809000    339.71786    450.95517    132.40878    132.16796    101.52664     5155.585      27.0546      59.6399 -0.00014913991  0.019094549 0.00049005052 0.00082386393 
 2810000      341.008     452.4953    -5.450233   -6.0908499    285.24916    5358.5012      27.0546      59.6399 -0.00028496665  0.010355751 0.00062445976 -0.0040136797 
 2811000    334.08983    443.58533   -164.57625   -164.57938    210.93702    5181.2659      27.0546      59.6399 9.5702496e-05 -0.0035046415 0.0011373247  0.013187084 
 2812000    339.38686    450.60091    123.24068    123.19699    301.41823    5350.5522      27.0546      59.6399 -0.00034691974  0.016151459 0.00033795078  0.022136043 
 2813000      341.857    453.82494   -99.315458   -99.487957    112.34319     5198.226      27.0546      59.6399 0.00064434128  0.033472742 -0.00011348147  0.010089839 
 2814000    342.38629    454.60213  -0.72773448  -0.72807804    170.28455    5264.0417      27.0546      59.6399 -0.0004047636 -0.0076095272 -9.1694321e-05 -0.022771895 
 2815000    332.19896    440.98057   -119.44689    -119.6678    317.56927    5259.7672      27.0546      59.6399 0.00062254317 -0.0082721405 0.0001909743 -0.0011588819 
 2816000     349.0046    463.37958   -21.958177   -21.981643    321.82106    5514.0403      27.0546      59.6399 -0.00030504827 0.0026843985 -0.00021635206 -0.020284359 
 2817000    331.89534    440.65871   -49.741881   -49.774809    340.76775    5278.4486      27.0546      59.6399 0.00027775045  0.010014061 0.0002376931 0.0047423712 
 2818000     339.3968    450.53519    143.77725    143.55103    219.21514     5268.497      27.0546      59.6399 0.00019345511  0.021012366 -8.6434785e-05 0.0030436148 
 2819000    333.24461    442.46428    281.76954    281.76915    274.73563      5232.49      27.0546      59.6399 0.00015823795 -0.014156164 -1.3490036e-05  0.014451455 
 2820000    341.17244    452.96478     18.72763     18.66792     231.8695    5307.5679      27.0546      59.6399 0.00020426089  0.025877108 0.00040409646 -0.022837191 
 2821000    344.14732    456.92928   -244.84799    -244.8739    280.04953    5400.0059      27.0546      59.6399 -0.00021864114 -0.013179755 -6.7601585e-06 0.0064984478 
 2822000      337.918     448.6426    70.291966    70.229697    327.64901    5354.9304      27.0546      59.6399 -0.0003385881  0.001058121 -0.00058247504  0.042486269 
 2823000    334.04397    443.52442    77.267398    77.264215    166.22951    5135.8761      27.0546      59.6399 0.00032337129  0.024646638 -2.5076097e-05 0.0028214271 
 2824000    337.35806    447.91879   -249.87308   -249.88991    342.60138    5361.5525      27.0546      59.6399 -0.00019569724 0.0066893743 -0.00060494301  0.017299554 
 2825000    345.35812    458.52533   -12.836925   -12.889627    337.32055    5475.2903      27.0546      59.6399 -0.00028736279  0.027381834 6.6056605e-05 -0.0013649014 
 2826000    340.69423    452.30532   -42.176541   -42.292976    258.42737    5327.0114      27.0546      59.6399 -0.00052893531  0.019820128 0.00033204517  -0.01296594 
 2827000    338.64353    449.60301   -450.99904   -451.06806    402.27287    5440.3482      27.0546      59.6399 -0.00014946995  0.017590295 -0.00038017725  0.011933441 
 2828000    346.90691    460.45836    250.01473    249.67664    309.98826    5470.9998      27.0546      59.6399 -0.00022955779 -0.0056219412 -7.8565166e-05   -0.0218061 
 2829000    338.83865    449.88828    299.77646    299.76804    259.97191    5300.9501      27.0546      59.6399 -0.00011358143 -0.0022279924 -0.00025569391   -0.0275242 
 2830000    335.31265    445.20838    235.42235    235.41796    236.96601    5225.4871      27.0546      59.6399 4.1569491e-05  0.023910304 -0.00014976613 0.0087658139 
 2831000    338.47645    449.26596   -256.50701    -256.8425    337.84219    5373.4318      27.0546      59.6399 -0.00018775365 0.0010577148 0.00011713601 -0.029571256 
 2832000    332.25803    441.02756   -225.60015   -225.89379     297.9119    5240.9887      27.0546      59.6399 0.00026996386  0.033988674 0.00046021626 0.0096905664 
 2833000    337.10747    447.57446    141.28504    141.24136    263.32428    5278.5472      27.0546      59.6399 -0.00019843747 0.0033186549 -0.00024429124 -0.020858169 
 2834000    345.87484    459.11639    156.43716    156.16467    151.81609    5297.4732      27.0546      59.6399 -0.00072089856  -0.00840473 -6.0623692e-05 -0.0085779705 
 2835000    340.75944    452.36253   -61.686114   -61.870481     308.8191    5378.3733      27.0546      59.6399 0.00085951677  0.028347679 8.2640194e-05  0.015561826 
 2836000    341.13903    452.93725    762.39804    762.37725    176.79735    5251.9988      27.0546      59.6399 -0.0004430229  0.032315713 -9.2602549e-05  0.013743898 
 2837000    343.25107    455.72368    330.97848    330.91646    164.44635    5271.0691      27.0546      59.6399 0.00051223029 0.0011581004 0.0009176547  0.025907035 
 2838000    344.77873    457.77159   -19.438858   -19.455614    266.82919    5396.1792      27.0546      59.6399 0.00014545701  0.055570118 3.3919662e-05 -0.007918735 
 2839000    336.10592    446.26322    64.361751    64.361023      215.847    5216.1697      27.0546      59.6399 -2.1701765e-05 -0.0063189092 0.00034317027  -0.02395069 
 2840000     344.6439    457.58626    53.223395    53.192043    140.71191     5268.056      27.0546      59.6399 0.00064692929 0.0060980651 -6.7019527e-05  0.037235666 
 2841000    341.90426    453.96119    102.18457    102.18207    233.28812    5319.8741      27.0546      59.6399 -0.00082773298 -0.010744891 0.00067027514 -0.0071575729 
 2842000    336.76168    446.86098    170.25853    169.62651    183.49217    5193.5707      27.0546      59.6399 0.00026064021 0.0023530672 -1.981092e-05 -0.010048817 
 2843000    344.40855    457.25474   -95.130302   -95.205682     106.0985    5229.9413      27.0546      59.6399 0.00041315717 0.0095051742 0.00036883679  0.016486381 
 2844000      346.603    460.15063    342.88146    342.76493    175.46465    5331.9548      27.0546      59.6399 5.994683e-06  0.027427942 -0.00035242547 -0.018330363 
 2845000    336.05581    446.19667   -28.572147   -28.572926    202.57397    5202.1511      27.0546      59.6399 0.00046616522  0.013881802 -0.00045159933 0.0047534794 
 2846000    339.19165    450.36053    93.610617    93.610434    194.20919    5240.4391      27.0546      59.6399 -0.00047899561  0.013545373 -4.5178153e-05  0.033615556 
 2847000     346.4042    459.91987   -110.10101   -110.14076    188.54161    5342.0742      27.0546      59.6399 -0.00048005662 -0.019426158 -0.0004596347 -0.020192548 
 2848000    337.74436    448.40779    -296.7692   -296.84134    242.25047    5266.9487      27.0546      59.6399 -1.8275127e-05  0.024552141 -0.00048517092 0.0037756895 
 2849000    341.18661    452.99917    70.109711    70.086026    170.47067    5246.3799      27.0546      59.6399 -0.00018900758  0.015870819 7.7831964e-06 -0.029344793 
 2850000    345.71542    459.00389   -11.945611   -11.988725    249.07668    5392.3621      27.0546      59.6399 -0.0014505326  0.032323593 8.8085226e-05  0.019124018 
 2851000    345.21899     458.3516   -181.49728   -181.52454    196.00526    5331.9051      27.0546      59.6399 -1.7237401e-05  0.032299922 7.6164716e-05 0.0025274656 
 2852000    339.92098    451.32491   -43.188379   -43.197797    70.240146    5127.3204      27.0546      59.6399 0.00032438641  0.012354518 -0.00010598388 -0.030786375 
 2853000    340.63565    452.25014    248.32565    248.26149    154.61779    5222.3304      27.0546      59.6399 -5.5715909e-05  0.017526156 -0.00062774882 0.0073203377 
 2854000    339.10823    450.22788    60.266052    60.215257    288.90513    5333.8938      27.0546      59.6399 0.00024484566 -0.018690401 0.00033028965 0.00013601437 
 2855000    342.90812     455.2707    96.165161    96.108641    211.31297    5312.8335      27.0546      59.6399 -0.00066549165 -0.012922984 -0.00075791925  0.017282696 
 2856000    337.01246    447.44987    288.63959    288.59953    91.396605    5105.2061      27.0546      59.6399 0.00016942307  -0.01545668 0.00016667741 0.0010759685 
 2857000     341.5944    453.55083   -45.317946   -45.318001    221.62487    5303.6009      27.0546      59.6399 1.6471069e-05 0.0026984129 0.00029679352 -0.015157504 
 2858000     328.3674     435.9725   -201.12151   -201.15908    346.18707    5231.3821      27.0546      59.6399 -0.00018495831 -0.026842987 0.00010997463  0.012755783 
 2859000    339.48159    450.70178   -258.30764   -258.40895    190.54814    5241.0915      27.0546      59.6399 -0.00022837858 0.0031847885 1.3144252e-06 -0.0084161733 
 2860000    343.13254    455.58033   -110.84077   -110.87034    233.57715    5338.4365      27.0546      59.6399 0.00021410948  0.024981718 1.0444412e-05  -0.02329219 
 2861000    341.16606    452.95449   -145.90636   -145.97027    307.18315    5382.7867      27.0546      59.6399 4.8001043e-06 -0.024681582 0.00034316771  0.028405996 
 2862000    330.67925    439.05237    43.234478    43.220789    181.83871    5101.4276      27.0546      59.6399 0.00061117708 0.0038626883 -0.00013597936  0.005469812 
 2863000    344.48462    457.22774    167.09831    166.72686    225.57968    5350.5542      27.0546      59.6399 -0.00068246045  0.011748563 0.00029781705 0.0048707077 
 2864000    339.10272    450.18904    82.585891     82.46216    188.95763    5233.8645      27.0546      59.6399 -0.00060658439 -0.025425794 0.00083736794 0.0079427862 
 2865000    338.00013    448.69797   -99.322507   -99.508941     151.9692    5180.4725      27.0546      59.6399 -0.00056841721   0.01908071 -0.00037624605 -0.0046771857 
 2866000    338.80754    449.84308   -42.196437   -42.213852    292.52292    5333.0383      27.0546      59.6399 0.00010834892  0.011913639 0.00056044472  0.024218878 
 2867000    332.01113    440.78831    20.632712    20.543928    168.99206    5108.3957      27.0546      59.6399 -0.00014588949 -0.0070529694 -0.0005554215 0.0076764573 
 2868000    339.97092    451.38846    302.77498    302.75921    180.77588     5238.599      27.0546      59.6399 0.00041960233 -0.0096115263 -0.00031968638 -0.010243645 
 2869000    342.25418     454.4177    49.390337    49.369105    57.545965    5149.3378      27.0546      59.6399 2.3983518e-05 -0.010299528 2.2308528e-05  0.014012375 
 2870000    338.45475    449.38202   -109.40845   -109.40886    210.99964    5246.2664      27.0546      59.6399 -0.00024554903 -0.016402702 -0.00016530947 -0.032533732 
 2871000    337.41588    447.99058      145.104    145.07566    138.63259    5158.4438      27.0546      59.6399 -0.00058256624  0.017604283 0.00014915141  -0.01243137 
 2872000    333.81551    443.20865   -149.59577    -149.6277    229.75949    5196.0072      27.0546      59.6399 0.00039046438 -0.013206194 -0.00028247105 0.0043311183 
 2873000    344.31569     457.1558    227.17398    227.15493    259.42617    5381.8874      27.0546      59.6399  0.000773357 -0.00079665853 -0.0012151142  0.013771967 
 2874000    337.89604    448.63514   -332.63932    -332.6514    192.84244    5219.7971      27.0546      59.6399 -0.00037987512 0.0069875506 -3.4179833e-05 -0.0030914511 
 2875000    334.88358    444.64034   -92.714234   -92.714814     313.4767    5295.6144      27.0546      59.6399 0.00039014023 0.0093975919 -0.00024074775  0.026292996 
 2876000    337.10402    447.53212    55.257581    55.126554    123.10218    5138.2739      27.0546      59.6399 -0.00056739892 0.0066169412 1.6060759e-05 -0.011004634 
 2877000    340.83683    452.42789   -79.248609   -79.519469    280.03677    5350.7423      27.0546      59.6399 0.00011229164  0.024555436 -3.749251e-05 -0.0024518207 
 2878000    342.04317    454.13025     144.1923    144.15425    243.86235    5332.5148      27.0546      59.6399 -0.00045479941 -0.0028343186 0.00035709522  0.014099856 
 2879000    342.57674    454.85171    260.00457    259.99663    263.33527    5359.9258      27.0546      59.6399 -0.0007713679   0.03712391 -2.2190156e-05 -0.018563246 
 2880000    343.35121    455.88162   -305.07782   -305.08205    161.46108    5269.5736      27.0546      59.6399 -9.0101423e-05 -0.0014489989 0.00057821339  0.036329631 
 2881000    341.76795     453.7293   -31.401725   -31.521961    218.59223    5303.1502      27.0546      59.6399 0.0007676144  0.025768209 0.00060112616 -0.0023659449 
 2882000    343.58857    456.13156    108.97459    108.81951     299.0188    5410.6626      27.0546      59.6399 0.00013377918 -0.0032653006 -0.00017748996 -0.0024640557 
 2883000    343.57517    456.05761    47.994573      47.7096    166.14143    5277.5858      27.0546      59.6399 -0.00072541982 0.0045954183 -0.00034917335 -0.0011331001 
 2884000    345.73084    459.01755    -202.1684   -202.22727    356.36119     5499.876      27.0546      59.6399 -0.00019217209 -0.016365554 -0.00036525569  0.014963844 
 2885000    340.51477    452.11455   -76.949871   -76.956408    217.42394    5283.3381      27.0546      59.6399 0.00034153845 -0.0065636648 -0.00017898018 0.0053567783 
 2886000    345.03364    458.01179    29.255432     29.01138    210.86029    5344.0027      27.0546      59.6399 -0.00071231373  0.037043135 0.0001147687 -0.0015934573 
 2887000    335.77129    445.79788     244.1128    244.06341    271.35451    5266.6988      27.0546      59.6399  0.001388473  0.018581788 -0.00017256283  0.011052002 
 2888000    336.58444    446.89229    174.69582    174.68055     227.1183    5234.5601      27.0546      59.6399 0.00053172909 -0.0071386498 -0.00021577182  0.018513815 
 2889000    340.21663    451.71834   -164.81739   -164.82476    265.40124    5326.8799      27.0546      59.6399 0.00073198029 0.00025039638 6.9591972e-06 0.0018793781 
 2890000    343.72635    456.38074   -14.388891   -14.390761    278.06406    5391.7576      27.0546      59.6399 0.00033814721  0.013978516 -0.00037138908 -0.013047936 
 2891000    343.58942    456.18759    12.102222    12.074124    218.72031    5330.3768      27.0546      59.6399 9.5458928e-05  0.024400934 3.240715e-05 0.0035347903 
 2892000    336.20471    446.37883    346.49749    346.46077    389.08166    5390.8741      27.0546      59.6399 0.00064768499 0.0088336333 0.00091910391 -0.018243981 
 2893000    341.68886    453.67551   -436.35288   -436.35465    241.13026    5324.5116      27.0546      59.6399 0.0008214752   0.04020267 0.00064356118 0.0024501473 
 2894000     341.8126    453.75302    -24.18367   -24.386171    300.33041    5385.5527      27.0546      59.6399 0.0001638679 -0.013056478 0.00024714262  0.033996898 
 2895000    332.61565    441.53492   -297.40249   -297.62089    359.46017    5307.8573      27.0546      59.6399 0.00045073187 -0.005959566 -0.00022988275 0.0008191504 
 2896000    339.03404    450.14782    73.551574    73.543427    234.48482    5278.3698      27.0546      59.6399 0.00051411734  0.012551852 0.00094637943 -0.019228848 
 2897000    348.60196    462.85004    588.65348    588.64176    298.29565    5484.5247      27.0546      59.6399 -0.00013297825 0.0011239637 -0.00048520688 -0.013315149 
 2898000     338.5518    449.44481    16.812857    16.659654    298.88977    5335.6003      27.0546      59.6399 -8.5622723e-05 -0.016589512 0.00011317544 -0.030952433 
 2899000    341.66627     453.6454    6.2120988    6.2100742    307.21207    5390.2574      27.0546      59.6399 0.00056287996 -0.0035334511 0.00012938266 -0.010836834 
 2900000    340.59146    452.16144   -50.347559   -50.481169    204.40462    5271.4598      27.0546      59.6399 -6.2694405e-06  0.033204872 -0.00037453321 -0.00010351749 
 2901000    341.78883    453.80444    130.17848    130.16792     140.1475    5225.0161      27.0546      59.6399 -0.00025242698 -0.0087390675 0.0009176268  0.011631662 
 2902000    341.24479    453.02048    471.92236    471.76929    128.43017     5205.205      27.0546      59.6399 -0.00020661202 -0.018526694 0.00028889596 -0.0032714665 
 2903000      344.794    457.70474   -47.247002   -47.465263    151.52352    5281.1007      27.0546      59.6399 0.00018312585 0.0087108807 -0.00052604557  -0.02055149 
 2904000    343.08773    455.52972    80.522963    80.513959    278.95455    5383.1472      27.0546      59.6399 -0.00030328893 0.0076684342 0.00022365892 -0.027974416 
 2905000     335.9221    445.84824   -106.06919   -106.46526    136.90872    5134.4966      27.0546      59.6399 0.00084352536 -0.0037459074 -0.0002880615 -0.029925164 
 2906000    339.62609    450.93169    92.307138    92.293855    178.43557    5231.1287      27.0546      59.6399 0.00010431602 -0.015872762  0.000990959 0.0098654062 
 2907000     337.2563    447.75331    111.55693    111.46986    229.71935    5247.1565      27.0546      59.6399 0.00076867523  -0.01540509 -7.4433372e-05  0.023362005 
 2908000    336.34255     446.4217   -89.486761   -89.847662    122.28021    5126.1234      27.0546      59.6399 0.00066340457  0.031757503 -0.00083942875  0.020478279 
 2909000    340.08605    451.54812   -162.49059   -162.49066    195.41681    5254.9528      27.0546      59.6399 0.00029002346 -0.0063595146 -0.00053848213  0.041994404 
 2910000     343.5055    456.05614   -278.90578   -278.98019    72.834596    5183.2425      27.0546      59.6399 0.00016451881 0.0072762405 3.2209217e-05 0.0095885507 
 2911000    341.01032    452.77458   -145.89032   -145.89208    159.24862    5232.5352      27.0546      59.6399 -5.3060422e-05   0.01220358 0.00023498878   -0.0190747 
 2912000    339.50488    450.70716    162.31583    162.15544    210.23867    5261.1285      27.0546      59.6399 0.00025300508 0.0044205125 -0.00030285067  0.012121954 
 2913000    341.62097    453.55087    95.876371    95.794823    76.570321    5158.9416      27.0546      59.6399 -0.00017489544 -0.0096614896 0.00032247251 -0.015397876 
 2914000    335.85355    445.92539   -107.97215   -107.97924    79.509032    5076.0772      27.0546      59.6399 0.00012137787  0.031592892 -4.6862599e-05 -0.0060077507 
 2915000    337.66579    448.32179   -52.488504   -52.518273    231.63614    5255.1654      27.0546      59.6399 0.00074254017  0.018973071 0.00023284354 -0.011271292 
 2916000     336.1524    446.30768    81.269884    81.229229    44.523162    5045.5374      27.0546      59.6399 0.0001941252  0.013082991 -0.00019350756 -0.028978701 
 2917000    343.02837    455.43403    75.638199    75.590167    143.29155    5246.6011      27.0546      59.6399 -7.8470267e-05 -0.023565606 -0.00076637203 -0.0063591575 
 2918000    337.81676     448.5084     94.84305    94.781279    86.904441    5112.6797      27.0546      59.6399 -8.0439158e-05  0.014732678 -0.0002144434 0.0097215347 
 2919000    348.73098    462.98611    97.753279    97.660059    85.350686    5273.4992      27.0546      59.6399 0.00056398125 0.0016711187 -0.00096674582 -0.0031081708 
 2920000    342.41881    454.60434   -247.86037   -247.95548    152.11026    5246.3512      27.0546      59.6399 0.00045564512 0.0030050911 -0.00079878323  0.012781002 
 2921000    336.45797     446.7176    16.180231    16.149294    150.08815    5155.6484      27.0546      59.6399 -0.00032648691  0.021896315 7.0037416e-05  0.020834587 
 2922000    344.51827     457.3828   -232.38056   -232.49669    62.734627    5188.2097      27.0546      59.6399 -0.0010952853 0.00098111485 -0.00061991991 -0.020660627 
 2923000    343.08648    455.51786    391.45568    391.42306    158.50851    5262.6826      27.0546      59.6399 -8.6347498e-05 0.0045045513 0.00026511642 -0.0089044916 
 2924000    341.61122    453.52524    355.46033    355.34945    117.50499    5199.7313      27.0546      59.6399 -0.00028037838 -0.022197506 -0.00056230249  0.038704967 
 2925000    337.18754    447.69966    50.093293    50.093293    233.41272     5249.827      27.0546      59.6399 0.00016089566  -0.02659737 -0.00015722278 -0.011357365 
 2926000    343.94854    456.67432   -5.3787377   -5.3838921    300.18721    5417.1863      27.0546      59.6399 -6.572746e-05  0.048005635 0.00085966262 -0.020903453 
 2927000    336.48675    446.60992    337.43528    337.06688    149.06375    5155.0521      27.0546      59.6399 -0.00012111489  0.037337161 0.00052220586   0.01746565 
 2928000    339.31553    450.49078    41.831033    41.751677    159.36822     5207.441      27.0546      59.6399 -0.00054677973  0.027114701 0.00020341833  0.027342292 
 2929000    338.10721    448.78048    24.811382    24.486952    277.50943    5307.6058      27.0546      59.6399 -0.00042522708  0.013467296 3.4344495e-05 -0.0092542447 
 2930000    331.18419     439.6526    58.172201     57.99611    373.15739    5300.2585      27.0546      59.6399 0.00031598326 0.0013468655 2.0171565e-05 0.0045138772 
 2931000    328.96251    436.70754    177.62617    177.46112    261.29613    5155.3447      27.0546      59.6399  0.000246844 0.0048149204 -2.8962951e-05 -0.0029895708 
 2932000    342.72381    455.04948    85.721637    85.719438    269.34722    5368.1258      27.0546      59.6399 -0.00012486903 -0.010205746 0.00030136193 -0.0085642922 
 2933000    342.86981    455.24427   -102.46939   -102.46941    328.90011    5429.8507      27.0546      59.6399 0.00033290192 0.0097798078 -0.00045703822  0.010362336 
 2934000    343.43693    455.99363    143.97114    143.96274    306.59598    5415.9838      27.0546      59.6399 -7.7226903e-05 -0.012715771 -0.00097270948  0.011779102 
 2935000    340.03689    451.41211   -185.03872   -185.20238    364.66495    5423.4696      27.0546      59.6399 -0.00050185022 -0.015729895 6.1273985e-05 0.0059172832 
 2936000    341.82836    453.80592    97.166111    97.037572     344.3843     5429.841      27.0546      59.6399 0.00081887727 0.0039102861 5.6160781e-05 -0.010563161 
 2937000    335.47802    445.38674   -342.48395   -342.58366    298.45262    5289.4339      27.0546      59.6399 -0.0002352266 -0.024178663 -0.0002114026 0.00041655951 
 2938000    339.27967    450.47559   -177.40213   -177.40647    278.51733    5326.0566      27.0546      59.6399 0.0003101569 -0.0053123472 0.0001304116 -0.016266545 
 2939000    342.00902    454.06181   -119.81206   -119.90354    273.26794    5361.4124      27.0546      59.6399 -0.00062158774 0.0076726289 -0.00025592037  0.027104651 
 2940000    341.91737    453.93252   -248.11596   -248.22504     290.2582    5377.0392      27.0546      59.6399 -0.00049432641 -0.0080128394 -1.7886383e-05 -0.0090458532 
 2941000    326.98884     434.1507   -232.66039   -232.67812    387.07532    5251.7613      27.0546      59.6399 6.4176518e-07 0.0017110725 0.00044089885 -0.020270873 
 2942000    333.91154    443.26033   -113.97766   -114.18498    359.30936    5326.9858      27.0546      59.6399 -0.00073287641 -0.022464997 5.6517304e-05  0.033643322 
 2943000    339.97381    451.38732   -217.14164   -217.16892     260.1824    5318.0485      27.0546      59.6399 0.00061218134 -0.0069178489 0.00058325418 -0.022150059 
 2944000    337.61178    448.25139   -282.33455   -282.36127    308.76171    5331.4874      27.0546      59.6399 -0.0001392082  0.020105324 -0.00016230629 -0.012337823 
 2945000    344.41648    457.27955    204.80196    204.75959    165.17105    5289.1319      27.0546      59.6399 -0.0010650446 0.0074519548 1.5249765e-05  0.006397909 
 2946000    336.81853    447.10278   -149.57954   -149.82689    210.05518    5220.9796      27.0546      59.6399 -0.00077588858 -0.019929332 -0.00029057196  0.020351066 
 2947000    337.11873    447.56748    15.753552    15.659158    189.46396    5204.8544      27.0546      59.6399 0.00059128048  0.011718389 -0.00025290692 -0.0041651786 
 2948000    344.15639    456.95253   -35.178777   -35.178782    270.73796    5390.8294      27.0546      59.6399 -0.00062362908 -0.010764641 -0.00023081293 0.0010660841 
 2949000    336.17336    446.33257   -143.76539   -143.81285    228.86185    5230.1879      27.0546      59.6399 -0.00021073305  0.013963642 5.4671113e-05 -0.0014319293 
 2950000    338.94787    449.94857    89.321794    89.117415    209.12152    5251.7246      27.0546      59.6399 0.00014143109 -0.021464202  0.000458526 -0.0059382591 
 2951000    337.12941     447.5137    124.52818    124.27655     52.25978    5067.8092      27.0546      59.6399 0.00049914949 -0.00032256941 0.00021693915 0.0090139615 
 2952000    342.71783    455.03087    141.13281    141.10597    189.43351     5288.123      27.0546      59.6399 6.0131595e-05 0.0034124048 -0.00062308206 -0.0025188733 
 2953000    339.66353    450.94342   -43.812736   -43.913896    203.75576    5257.0059      27.0546      59.6399 -0.00011301902 -0.026613798 0.00034459204 -0.013947897 
 2954000    335.92696    445.94448   -174.06877   -174.25715    122.02965    5119.6899      27.0546      59.6399 -0.00030744571  0.034001966 0.00056886431 0.0036820181 
 2955000    338.14194    448.96677    -76.21631   -76.216531    203.05569    5233.6688      27.0546      59.6399 0.00062666174 0.0084676426 -0.00067766996  0.033669337 
 2956000    338.11056    448.92518    77.717674    77.717662    108.68834    5138.8345      27.0546      59.6399 -9.9572798e-05 0.0051338396 -0.00017833489 -0.0096629711 
 2957000    331.05481    439.52976   -119.26192   -119.32479    239.61416    5164.7903      27.0546      59.6399 0.00066829883 0.0075063968 -5.8859936e-05  0.017789532 
 2958000    346.39916    459.85878    15.337176    15.171616    147.66263    5301.1202      27.0546      59.6399 0.00076263963 0.0056389663 0.00060410968 -0.016971854 
 2959000    343.62171    456.24252    108.21179    108.21158    168.29655    5280.4334      27.0546      59.6399 -0.0001039483 -0.014343446 -0.00013086411 -0.0042001153 
 2960000    343.52679    456.09358   -142.95789   -143.01108      251.889    5362.6137      27.0546      59.6399 -0.00019085503  -0.02665446 -0.00014523875  0.010968459 
 2961000     342.0628    454.15955    111.61125    111.58067     205.9521    5294.8966      27.0546      59.6399 0.00095290225  0.036743376 -0.00034824101 -0.019995011 
 2962000    342.15339    454.29104   -112.85067   -112.85531    159.06931    5249.3615      27.0546      59.6399 -8.4445351e-05 0.0017447546 -0.00021644003  0.016133229 
 2963000    342.38729     454.5981   -111.28056    -111.2933    285.31606    5379.0881      27.0546      59.6399 -0.00087013091 -0.022382314 -0.00043238374    0.0294681 
 2964000    339.32178    450.53324   -138.78292   -138.78327    238.44523     5286.611      27.0546      59.6399 0.00050750527  0.034386104 0.00011269908 -0.0066945464 
 2965000     338.3804    449.16442    244.46541    244.19004    122.31486    5156.4755      27.0546      59.6399 0.00047374067  0.020865163 -0.00088579381 -0.0047692053 
 2966000    342.56422    454.82974   -216.39098   -216.41132     71.64652    5168.0508      27.0546      59.6399 0.0007164714 0.0018941712 0.00077782995  -0.01747529 
 2967000    334.26956    443.80555   -32.308921    -32.35464    121.77299    5094.7757      27.0546      59.6399 -0.00054881045 -0.0038313117 0.00027725274  0.026870528 
 2968000    346.62954    460.22126    53.713301    53.678656    108.26453    5265.1494      27.0546      59.6399 0.00057773536 0.00030641098 -0.00013937092 -0.0028181115 
 2969000    340.12355    451.49357   -46.618057   -46.859455    125.92692    5186.0208      27.0546      59.6399 0.0012213102  0.038420133 -9.1745369e-05 -0.045028744 
 2970000    339.34696    450.56053    -153.3735   -153.38807    100.32268    5148.8631      27.0546      59.6399 -0.00028407325  0.038858408 -0.00045683292  0.026409883 
 2971000     347.0611    460.80755    315.40154    315.39763    271.21835    5434.5237      27.0546      59.6399 0.00035932015 -0.0050411672 -0.00031168554 -0.0011212504 
 2972000     342.2735    454.44717    358.16006    358.14767    96.259166    5188.3384      27.0546      59.6399 0.00017334516 -0.017756432 0.00058859189 -0.0041167474 
 2973000    340.31428    451.80642    495.79518    495.69164    170.49304    5233.4245      27.0546      59.6399 0.00016174505  0.011219456 0.00026234611 -0.016537065 
 2974000    348.23442    462.20488    170.87925    170.50397    300.44352    5481.2047      27.0546      59.6399 -7.6598761e-05 -0.024707777 -0.00030619121 -0.0083569865 
 2975000    337.29817    447.77809   -69.534114   -69.692451    232.53086     5250.591      27.0546      59.6399 -8.5250928e-05  0.011580876 0.00037885641 -0.00040659229 
 2976000    346.37558    459.77629   -335.22976    -335.5137    83.545265     5236.652      27.0546      59.6399 -0.00018893187 -0.011609972 -0.0012216396 -0.0092918268 
 2977000    341.13844    452.94347     23.84383    23.839245    302.54148    5377.7341      27.0546      59.6399 0.00010744079 -0.0073623648 0.00050493478  0.017643731 
 2978000    339.13939    450.28558   -362.30243   -362.31547    120.01795    5165.4703      27.0546      59.6399 0.00044125028  0.027115088 -0.00031977702 -0.018385338 
 2979000    340.67385    452.31402    105.35493    105.32123    249.31962    5317.6004      27.0546      59.6399 0.00028679139 -0.0037306807 -0.00035067938  0.014374393 
 2980000    342.66582     454.9728   -40.182108   -40.183546    178.17053    5276.0863      27.0546      59.6399 0.00078683199 -0.0012226887 -0.00024345705  0.005498888 
 2981000    338.96345    450.05424    178.50068    178.49288    175.74545    5218.5803      27.0546      59.6399 0.0009246279 0.0049530371 2.2541233e-05 0.0053513292 
 2982000    341.84563    453.83481   -33.448249    -33.56299    227.15571    5312.8693      27.0546      59.6399 -0.00028961726  0.012600757 -0.00034755069  0.043213554 
 2983000    346.35251    459.81637   -50.079606   -50.200001    281.07033    5433.8338      27.0546      59.6399 -0.00024900868  0.030513966 0.0014446315  0.020592991 
 2984000    328.68094    436.40447    108.82424     108.8229    359.39429     5249.254      27.0546      59.6399 0.00013859463 -0.019145853 -0.00034138395   0.01707658 
 2985000    343.40959    455.94235   -6.1887809   -6.2318431    309.99009    5418.9712      27.0546      59.6399 -0.00059162111 0.0089544393 8.7740143e-05 0.00023871669 
 2986000     342.2023    454.35613   -58.076007   -58.080312    301.47328    5392.4932      27.0546      59.6399 -0.00023402115 -0.0091002771 0.00064131506  -0.00770368 
 2987000    335.02277     444.7582   -214.84834   -215.00376    197.76813    5181.9766      27.0546      59.6399 -0.00051881421  0.017754415 0.00015646256 0.0011119751 
 2988000    341.28811    453.14157    199.29084    199.28479    319.71335    5397.1327      27.0546      59.6399 -0.00078517098 -0.00080995337 -0.00042422201 0.0096417808 
 2989000    339.64137    450.85137   -232.53105   -232.77703    280.09656    5333.0169      27.0546      59.6399 -0.00022343943 0.0026931337 1.3080535e-05  0.031917767 
 2990000    341.82454    453.85173    226.17178    226.16092    278.82387    5364.2238      27.0546      59.6399 -0.00012781318  0.012328447 0.00054994826  0.024605127 
 2991000    337.14176    447.34076   -155.88724   -156.57678     244.9112    5260.6443      27.0546      59.6399 -0.00067087498 0.0041156434 -6.5690639e-05  0.020503549 
 2992000    343.30464    455.81277    136.21641    136.19596    360.51492    5467.9345      27.0546      59.6399 0.0014305804  0.005901366 0.00074964232 -0.015323419 
 2993000    343.06055    455.49169   -320.20692   -320.22041    290.25377     5394.042      27.0546      59.6399 -0.00014745884 -0.0083322497 0.00039323239 -0.027380504 
 2994000     346.1179    459.52598   -73.951216   -74.022753    290.32249    5439.5956      27.0546      59.6399 -0.00027925952  0.020205089 -8.4087993e-05 -0.021987594 
 2995000    333.04179     442.1662   -105.75143   -105.81841     322.8764    5277.6134      27.0546      59.6399 -0.00029554066  0.024064421 0.00035809701  0.016260115 
 2996000    335.50811    445.38938    225.60196    225.41594    398.09392    5389.5229      27.0546      59.6399 -7.3575975e-05 0.0037139395 0.00049340428  0.010978707 
 2997000     337.8968    448.63243   -330.63041   -330.65112    338.34361    5365.3097      27.0546      59.6399 9.6731732e-05  0.031345151 9.400709e-05 -0.034479353 
 2998000    341.14662    452.94045   -142.98803   -143.02471    367.91923    5443.2335      27.0546      59.6399 0.00052464941 -0.0023024138 0.00076395328 -0.00094383949 
 2999000    341.66553    453.62578   -70.463703   -70.508854    475.00082    5558.0351      27.0546      59.6399 0.00028466824 -0.045310794 0.00059985809 0.0090098678 
 3000000    340.46747    452.05174   -276.09959   -276.10613    316.27264     5381.483      27.0546      59.6399 -0.00057617682 0.0065918746 -0.00026807061 -0.026183968 
Loop time of 6171.02 on 16 procs for 3000000 steps with 4992 atoms

Performance: 42.003 ns/day, 0.571 hours/ns, 486.143 timesteps/s
828.0% CPU use with 1 MPI tasks x 16 OpenMP threads

MPI task timing breakdown:
Section |  min time  |  avg time  |  max time  |%varavg| %total
---------------------------------------------------------------
Pair    | 2440.5     | 2440.5     | 2440.5     |   0.0 | 39.55
Bond    | 1541.3     | 1541.3     | 1541.3     |   0.0 | 24.98
Neigh   | 180.85     | 180.85     | 180.85     |   0.0 |  2.93
Comm    | 360.32     | 360.32     | 360.32     |   0.0 |  5.84
Output  | 9.9162     | 9.9162     | 9.9162     |   0.0 |  0.16
Modify  | 1631.2     | 1631.2     | 1631.2     |   0.0 | 26.43
Other   |            | 6.86       |            |       |  0.11

Nlocal:        4992.00 ave        4992 max        4992 min
Histogram: 1 0 0 0 0 0 0 0 0 0
Nghost:        14549.0 ave       14549 max       14549 min
Histogram: 1 0 0 0 0 0 0 0 0 0
Neighs:       981554.0 ave      981554 max      981554 min
Histogram: 1 0 0 0 0 0 0 0 0 0

Total # of neighbors = 981554
Ave neighs/atom = 196.62540
Ave special neighs/atom = 7.4230769
Neighbor list builds = 51282
Dangerous builds = 0
write_restart in_oil_restart_*.in
System init for write_restart ...
Last active /omp style is dihedral_style opls/omp
write_data in_oil_*.in
System init for write_data ...
Last active /omp style is dihedral_style opls/omp
WARNING: Not all mixed pair coeffs generated from mixing. Use write_data with 'pair ij' option to store all pair coeffs. (src/write_data.cpp:312)

# run 1000000
# write_restart in_oil_restart_*.in
# write_data in_oil_*.in





Total wall time: 1:42:51
